NAME	DNeg_n25k4j4
ROWS
 N 	 OBJROW
 L	 R0 
COLUMNS
 C0	 OBJROW 	-95	 R0 	4	
 C1	 OBJROW 	-97	 R0 	5	
 C2	 OBJROW 	-45	 R0 	11	
 C3	 OBJROW 	-33	 R0 	27	
 C4	 OBJROW 	-10	 R0 	32	
 C5	 OBJROW 	-69	 R0 	34	
 C6	 OBJROW 	-30	 R0 	42	
 C7	 OBJROW 	-39	 R0 	43	
 C8	 OBJROW 	-85	 R0 	46	
 C9	 OBJROW 	-70	 R0 	48	
 C10	 OBJROW 	-27	 R0 	48	
 C11	 OBJROW 	-57	 R0 	49	
 C12	 OBJROW 	-32	 R0 	51	
 C13	 OBJROW 	-5	 R0 	57	
 C14	 OBJROW 	-73	 R0 	58	
 C15	 OBJROW 	-44	 R0 	58	
 C16	 OBJROW 	-35	 R0 	62	
 C17	 OBJROW 	-40	 R0 	70	
 C18	 OBJROW 	-4	 R0 	76	
 C19	 OBJROW 	-81	 R0 	81	
 C20	 OBJROW 	-23	 R0 	82	
 C21	 OBJROW 	-12	 R0 	88	
 C22	 OBJROW 	-59	 R0 	89	
 C23	 OBJROW 	-6	 R0 	92	
 C24	 OBJROW 	-82	 R0 	92	
RHS
 RHS	 R0 	 612	
BOUNDS
 BV BOUND	C0	 1	
 BV BOUND	C1	 1	
 BV BOUND	C2	 1	
 BV BOUND	C3	 1	
 BV BOUND	C4	 1	
 BV BOUND	C5	 1	
 BV BOUND	C6	 1	
 BV BOUND	C7	 1	
 BV BOUND	C8	 1	
 BV BOUND	C9	 1	
 BV BOUND	C10	 1	
 BV BOUND	C11	 1	
 BV BOUND	C12	 1	
 BV BOUND	C13	 1	
 BV BOUND	C14	 1	
 BV BOUND	C15	 1	
 BV BOUND	C16	 1	
 BV BOUND	C17	 1	
 BV BOUND	C18	 1	
 BV BOUND	C19	 1	
 BV BOUND	C20	 1	
 BV BOUND	C21	 1	
 BV BOUND	C22	 1	
 BV BOUND	C23	 1	
 BV BOUND	C24	 1	
ENDATA
