NAME	DNeg_n25k2j0
ROWS
 N 	 OBJROW
 L	 R0 
COLUMNS
 C0	 OBJROW 	-78	 R0 	6	
 C1	 OBJROW 	-23	 R0 	6	
 C2	 OBJROW 	-81	 R0 	17	
 C3	 OBJROW 	-10	 R0 	22	
 C4	 OBJROW 	-20	 R0 	24	
 C5	 OBJROW 	-41	 R0 	24	
 C6	 OBJROW 	-46	 R0 	28	
 C7	 OBJROW 	-74	 R0 	33	
 C8	 OBJROW 	-1	 R0 	33	
 C9	 OBJROW 	-88	 R0 	35	
 C10	 OBJROW 	-31	 R0 	41	
 C11	 OBJROW 	-11	 R0 	41	
 C12	 OBJROW 	-62	 R0 	41	
 C13	 OBJROW 	-46	 R0 	49	
 C14	 OBJROW 	-56	 R0 	57	
 C15	 OBJROW 	-57	 R0 	58	
 C16	 OBJROW 	-3	 R0 	61	
 C17	 OBJROW 	-96	 R0 	68	
 C18	 OBJROW 	-17	 R0 	69	
 C19	 OBJROW 	-65	 R0 	74	
 C20	 OBJROW 	-60	 R0 	80	
 C21	 OBJROW 	-73	 R0 	83	
 C22	 OBJROW 	-50	 R0 	91	
 C23	 OBJROW 	-23	 R0 	95	
 C24	 OBJROW 	-25	 R0 	96	
RHS
 RHS	 R0 	 336	
BOUNDS
 BV BOUND	C0	 1	
 BV BOUND	C1	 1	
 BV BOUND	C2	 1	
 BV BOUND	C3	 1	
 BV BOUND	C4	 1	
 BV BOUND	C5	 1	
 BV BOUND	C6	 1	
 BV BOUND	C7	 1	
 BV BOUND	C8	 1	
 BV BOUND	C9	 1	
 BV BOUND	C10	 1	
 BV BOUND	C11	 1	
 BV BOUND	C12	 1	
 BV BOUND	C13	 1	
 BV BOUND	C14	 1	
 BV BOUND	C15	 1	
 BV BOUND	C16	 1	
 BV BOUND	C17	 1	
 BV BOUND	C18	 1	
 BV BOUND	C19	 1	
 BV BOUND	C20	 1	
 BV BOUND	C21	 1	
 BV BOUND	C22	 1	
 BV BOUND	C23	 1	
 BV BOUND	C24	 1	
ENDATA
