NAME	DNeg_n30k6j3
ROWS
 N 	 OBJROW
 L	 R0 
COLUMNS
 C0	 OBJROW 	-96	 R0 	1	
 C1	 OBJROW 	-13	 R0 	4	
 C2	 OBJROW 	-45	 R0 	5	
 C3	 OBJROW 	-11	 R0 	10	
 C4	 OBJROW 	-26	 R0 	12	
 C5	 OBJROW 	-12	 R0 	15	
 C6	 OBJROW 	-2	 R0 	17	
 C7	 OBJROW 	-42	 R0 	17	
 C8	 OBJROW 	-97	 R0 	22	
 C9	 OBJROW 	-99	 R0 	23	
 C10	 OBJROW 	-41	 R0 	24	
 C11	 OBJROW 	-66	 R0 	28	
 C12	 OBJROW 	-2	 R0 	30	
 C13	 OBJROW 	-36	 R0 	33	
 C14	 OBJROW 	-22	 R0 	40	
 C15	 OBJROW 	-56	 R0 	42	
 C16	 OBJROW 	-97	 R0 	47	
 C17	 OBJROW 	-58	 R0 	49	
 C18	 OBJROW 	-76	 R0 	65	
 C19	 OBJROW 	-43	 R0 	66	
 C20	 OBJROW 	-41	 R0 	68	
 C21	 OBJROW 	-50	 R0 	79	
 C22	 OBJROW 	-49	 R0 	87	
 C23	 OBJROW 	-69	 R0 	88	
 C24	 OBJROW 	-53	 R0 	94	
 C25	 OBJROW 	-31	 R0 	97	
 C26	 OBJROW 	-7	 R0 	97	
 C27	 OBJROW 	-25	 R0 	98	
 C28	 OBJROW 	-29	 R0 	99	
 C29	 OBJROW 	-72	 R0 	99	
RHS
 RHS	 R0 	 927	
BOUNDS
 BV BOUND	C0	 1	
 BV BOUND	C1	 1	
 BV BOUND	C2	 1	
 BV BOUND	C3	 1	
 BV BOUND	C4	 1	
 BV BOUND	C5	 1	
 BV BOUND	C6	 1	
 BV BOUND	C7	 1	
 BV BOUND	C8	 1	
 BV BOUND	C9	 1	
 BV BOUND	C10	 1	
 BV BOUND	C11	 1	
 BV BOUND	C12	 1	
 BV BOUND	C13	 1	
 BV BOUND	C14	 1	
 BV BOUND	C15	 1	
 BV BOUND	C16	 1	
 BV BOUND	C17	 1	
 BV BOUND	C18	 1	
 BV BOUND	C19	 1	
 BV BOUND	C20	 1	
 BV BOUND	C21	 1	
 BV BOUND	C22	 1	
 BV BOUND	C23	 1	
 BV BOUND	C24	 1	
 BV BOUND	C25	 1	
 BV BOUND	C26	 1	
 BV BOUND	C27	 1	
 BV BOUND	C28	 1	
 BV BOUND	C29	 1	
ENDATA
