NAME	DNeg_n25k6j2
ROWS
 N 	 OBJROW
 L	 R0 
COLUMNS
 C0	 OBJROW 	-71	 R0 	5	
 C1	 OBJROW 	-72	 R0 	7	
 C2	 OBJROW 	-42	 R0 	11	
 C3	 OBJROW 	-48	 R0 	16	
 C4	 OBJROW 	-61	 R0 	16	
 C5	 OBJROW 	-70	 R0 	16	
 C6	 OBJROW 	-72	 R0 	19	
 C7	 OBJROW 	-88	 R0 	19	
 C8	 OBJROW 	-80	 R0 	21	
 C9	 OBJROW 	-88	 R0 	40	
 C10	 OBJROW 	-18	 R0 	47	
 C11	 OBJROW 	-2	 R0 	52	
 C12	 OBJROW 	-46	 R0 	55	
 C13	 OBJROW 	-89	 R0 	57	
 C14	 OBJROW 	-71	 R0 	59	
 C15	 OBJROW 	-46	 R0 	59	
 C16	 OBJROW 	-32	 R0 	62	
 C17	 OBJROW 	-70	 R0 	64	
 C18	 OBJROW 	-15	 R0 	67	
 C19	 OBJROW 	-15	 R0 	78	
 C20	 OBJROW 	-71	 R0 	87	
 C21	 OBJROW 	-21	 R0 	87	
 C22	 OBJROW 	-59	 R0 	87	
 C23	 OBJROW 	-40	 R0 	91	
 C24	 OBJROW 	-88	 R0 	92	
RHS
 RHS	 R0 	 773	
BOUNDS
 BV BOUND	C0	 1	
 BV BOUND	C1	 1	
 BV BOUND	C2	 1	
 BV BOUND	C3	 1	
 BV BOUND	C4	 1	
 BV BOUND	C5	 1	
 BV BOUND	C6	 1	
 BV BOUND	C7	 1	
 BV BOUND	C8	 1	
 BV BOUND	C9	 1	
 BV BOUND	C10	 1	
 BV BOUND	C11	 1	
 BV BOUND	C12	 1	
 BV BOUND	C13	 1	
 BV BOUND	C14	 1	
 BV BOUND	C15	 1	
 BV BOUND	C16	 1	
 BV BOUND	C17	 1	
 BV BOUND	C18	 1	
 BV BOUND	C19	 1	
 BV BOUND	C20	 1	
 BV BOUND	C21	 1	
 BV BOUND	C22	 1	
 BV BOUND	C23	 1	
 BV BOUND	C24	 1	
ENDATA
