NAME	DNeg_n20k3j6
ROWS
 N 	 OBJROW
 L	 R0 
COLUMNS
 C0	 OBJROW 	-42	 R0 	2	
 C1	 OBJROW 	-37	 R0 	6	
 C2	 OBJROW 	-53	 R0 	7	
 C3	 OBJROW 	-16	 R0 	9	
 C4	 OBJROW 	-46	 R0 	15	
 C5	 OBJROW 	-90	 R0 	20	
 C6	 OBJROW 	-21	 R0 	24	
 C7	 OBJROW 	-61	 R0 	32	
 C8	 OBJROW 	-20	 R0 	37	
 C9	 OBJROW 	-89	 R0 	43	
 C10	 OBJROW 	-69	 R0 	47	
 C11	 OBJROW 	-20	 R0 	54	
 C12	 OBJROW 	-39	 R0 	63	
 C13	 OBJROW 	-4	 R0 	68	
 C14	 OBJROW 	-57	 R0 	70	
 C15	 OBJROW 	-36	 R0 	75	
 C16	 OBJROW 	-95	 R0 	78	
 C17	 OBJROW 	-12	 R0 	79	
 C18	 OBJROW 	-55	 R0 	90	
 C19	 OBJROW 	-69	 R0 	97	
RHS
 RHS	 R0 	 334	
BOUNDS
 BV BOUND	C0	 1	
 BV BOUND	C1	 1	
 BV BOUND	C2	 1	
 BV BOUND	C3	 1	
 BV BOUND	C4	 1	
 BV BOUND	C5	 1	
 BV BOUND	C6	 1	
 BV BOUND	C7	 1	
 BV BOUND	C8	 1	
 BV BOUND	C9	 1	
 BV BOUND	C10	 1	
 BV BOUND	C11	 1	
 BV BOUND	C12	 1	
 BV BOUND	C13	 1	
 BV BOUND	C14	 1	
 BV BOUND	C15	 1	
 BV BOUND	C16	 1	
 BV BOUND	C17	 1	
 BV BOUND	C18	 1	
 BV BOUND	C19	 1	
ENDATA
