NAME	DNeg_n20k5j2
ROWS
 N 	 OBJROW
 L	 R0 
COLUMNS
 C0	 OBJROW 	-94	 R0 	6	
 C1	 OBJROW 	-30	 R0 	9	
 C2	 OBJROW 	-60	 R0 	15	
 C3	 OBJROW 	-19	 R0 	18	
 C4	 OBJROW 	-48	 R0 	26	
 C5	 OBJROW 	-76	 R0 	27	
 C6	 OBJROW 	-4	 R0 	46	
 C7	 OBJROW 	-62	 R0 	58	
 C8	 OBJROW 	-89	 R0 	60	
 C9	 OBJROW 	-11	 R0 	66	
 C10	 OBJROW 	-68	 R0 	70	
 C11	 OBJROW 	-17	 R0 	70	
 C12	 OBJROW 	-67	 R0 	70	
 C13	 OBJROW 	-91	 R0 	71	
 C14	 OBJROW 	-76	 R0 	76	
 C15	 OBJROW 	-81	 R0 	80	
 C16	 OBJROW 	-74	 R0 	80	
 C17	 OBJROW 	-68	 R0 	80	
 C18	 OBJROW 	-74	 R0 	83	
 C19	 OBJROW 	-97	 R0 	85	
RHS
 RHS	 R0 	 598	
BOUNDS
 BV BOUND	C0	 1	
 BV BOUND	C1	 1	
 BV BOUND	C2	 1	
 BV BOUND	C3	 1	
 BV BOUND	C4	 1	
 BV BOUND	C5	 1	
 BV BOUND	C6	 1	
 BV BOUND	C7	 1	
 BV BOUND	C8	 1	
 BV BOUND	C9	 1	
 BV BOUND	C10	 1	
 BV BOUND	C11	 1	
 BV BOUND	C12	 1	
 BV BOUND	C13	 1	
 BV BOUND	C14	 1	
 BV BOUND	C15	 1	
 BV BOUND	C16	 1	
 BV BOUND	C17	 1	
 BV BOUND	C18	 1	
 BV BOUND	C19	 1	
ENDATA
