NAME	DNeg_n25k0j4
ROWS
 N 	 OBJROW
 L	 R0 
COLUMNS
 C0	 OBJROW 	-88	 R0 	2	
 C1	 OBJROW 	-74	 R0 	5	
 C2	 OBJROW 	-97	 R0 	9	
 C3	 OBJROW 	-44	 R0 	9	
 C4	 OBJROW 	-75	 R0 	13	
 C5	 OBJROW 	-79	 R0 	14	
 C6	 OBJROW 	-57	 R0 	17	
 C7	 OBJROW 	-39	 R0 	33	
 C8	 OBJROW 	-62	 R0 	35	
 C9	 OBJROW 	-68	 R0 	37	
 C10	 OBJROW 	-26	 R0 	40	
 C11	 OBJROW 	-32	 R0 	43	
 C12	 OBJROW 	-53	 R0 	51	
 C13	 OBJROW 	-64	 R0 	52	
 C14	 OBJROW 	-57	 R0 	57	
 C15	 OBJROW 	-32	 R0 	59	
 C16	 OBJROW 	-86	 R0 	59	
 C17	 OBJROW 	-87	 R0 	64	
 C18	 OBJROW 	-82	 R0 	68	
 C19	 OBJROW 	-82	 R0 	70	
 C20	 OBJROW 	-41	 R0 	73	
 C21	 OBJROW 	-23	 R0 	74	
 C22	 OBJROW 	-23	 R0 	77	
 C23	 OBJROW 	-85	 R0 	79	
 C24	 OBJROW 	-34	 R0 	95	
RHS
 RHS	 R0 	 104	
BOUNDS
 BV BOUND	C0	 1	
 BV BOUND	C1	 1	
 BV BOUND	C2	 1	
 BV BOUND	C3	 1	
 BV BOUND	C4	 1	
 BV BOUND	C5	 1	
 BV BOUND	C6	 1	
 BV BOUND	C7	 1	
 BV BOUND	C8	 1	
 BV BOUND	C9	 1	
 BV BOUND	C10	 1	
 BV BOUND	C11	 1	
 BV BOUND	C12	 1	
 BV BOUND	C13	 1	
 BV BOUND	C14	 1	
 BV BOUND	C15	 1	
 BV BOUND	C16	 1	
 BV BOUND	C17	 1	
 BV BOUND	C18	 1	
 BV BOUND	C19	 1	
 BV BOUND	C20	 1	
 BV BOUND	C21	 1	
 BV BOUND	C22	 1	
 BV BOUND	C23	 1	
 BV BOUND	C24	 1	
ENDATA
