NAME	DNeg_n30k1j1
ROWS
 N 	 OBJROW
 L	 R0 
COLUMNS
 C0	 OBJROW 	-17	 R0 	7	
 C1	 OBJROW 	-58	 R0 	9	
 C2	 OBJROW 	-25	 R0 	12	
 C3	 OBJROW 	-97	 R0 	12	
 C4	 OBJROW 	-51	 R0 	14	
 C5	 OBJROW 	-10	 R0 	14	
 C6	 OBJROW 	-60	 R0 	15	
 C7	 OBJROW 	-70	 R0 	16	
 C8	 OBJROW 	-27	 R0 	23	
 C9	 OBJROW 	-90	 R0 	26	
 C10	 OBJROW 	-29	 R0 	30	
 C11	 OBJROW 	-2	 R0 	39	
 C12	 OBJROW 	-1	 R0 	46	
 C13	 OBJROW 	-53	 R0 	47	
 C14	 OBJROW 	-69	 R0 	52	
 C15	 OBJROW 	-60	 R0 	54	
 C16	 OBJROW 	-6	 R0 	58	
 C17	 OBJROW 	-71	 R0 	65	
 C18	 OBJROW 	-5	 R0 	69	
 C19	 OBJROW 	-58	 R0 	70	
 C20	 OBJROW 	-86	 R0 	74	
 C21	 OBJROW 	-74	 R0 	75	
 C22	 OBJROW 	-88	 R0 	79	
 C23	 OBJROW 	-5	 R0 	79	
 C24	 OBJROW 	-94	 R0 	80	
 C25	 OBJROW 	-41	 R0 	81	
 C26	 OBJROW 	-1	 R0 	84	
 C27	 OBJROW 	-68	 R0 	85	
 C28	 OBJROW 	-19	 R0 	85	
 C29	 OBJROW 	-50	 R0 	87	
RHS
 RHS	 R0 	 271	
BOUNDS
 BV BOUND	C0	 1	
 BV BOUND	C1	 1	
 BV BOUND	C2	 1	
 BV BOUND	C3	 1	
 BV BOUND	C4	 1	
 BV BOUND	C5	 1	
 BV BOUND	C6	 1	
 BV BOUND	C7	 1	
 BV BOUND	C8	 1	
 BV BOUND	C9	 1	
 BV BOUND	C10	 1	
 BV BOUND	C11	 1	
 BV BOUND	C12	 1	
 BV BOUND	C13	 1	
 BV BOUND	C14	 1	
 BV BOUND	C15	 1	
 BV BOUND	C16	 1	
 BV BOUND	C17	 1	
 BV BOUND	C18	 1	
 BV BOUND	C19	 1	
 BV BOUND	C20	 1	
 BV BOUND	C21	 1	
 BV BOUND	C22	 1	
 BV BOUND	C23	 1	
 BV BOUND	C24	 1	
 BV BOUND	C25	 1	
 BV BOUND	C26	 1	
 BV BOUND	C27	 1	
 BV BOUND	C28	 1	
 BV BOUND	C29	 1	
ENDATA
