NAME	DNeg_n20k5j8
ROWS
 N 	 OBJROW
 L	 R0 
COLUMNS
 C0	 OBJROW 	-57	 R0 	16	
 C1	 OBJROW 	-69	 R0 	18	
 C2	 OBJROW 	-62	 R0 	22	
 C3	 OBJROW 	-63	 R0 	33	
 C4	 OBJROW 	-6	 R0 	42	
 C5	 OBJROW 	-17	 R0 	48	
 C6	 OBJROW 	-27	 R0 	52	
 C7	 OBJROW 	-77	 R0 	55	
 C8	 OBJROW 	-77	 R0 	59	
 C9	 OBJROW 	-82	 R0 	62	
 C10	 OBJROW 	-72	 R0 	64	
 C11	 OBJROW 	-64	 R0 	64	
 C12	 OBJROW 	-25	 R0 	68	
 C13	 OBJROW 	-88	 R0 	75	
 C14	 OBJROW 	-40	 R0 	84	
 C15	 OBJROW 	-71	 R0 	85	
 C16	 OBJROW 	-92	 R0 	88	
 C17	 OBJROW 	-2	 R0 	91	
 C18	 OBJROW 	-43	 R0 	92	
 C19	 OBJROW 	-50	 R0 	98	
RHS
 RHS	 R0 	 664	
BOUNDS
 BV BOUND	C0	 1	
 BV BOUND	C1	 1	
 BV BOUND	C2	 1	
 BV BOUND	C3	 1	
 BV BOUND	C4	 1	
 BV BOUND	C5	 1	
 BV BOUND	C6	 1	
 BV BOUND	C7	 1	
 BV BOUND	C8	 1	
 BV BOUND	C9	 1	
 BV BOUND	C10	 1	
 BV BOUND	C11	 1	
 BV BOUND	C12	 1	
 BV BOUND	C13	 1	
 BV BOUND	C14	 1	
 BV BOUND	C15	 1	
 BV BOUND	C16	 1	
 BV BOUND	C17	 1	
 BV BOUND	C18	 1	
 BV BOUND	C19	 1	
ENDATA
