NAME	DNeg_n20k1j1
ROWS
 N 	 OBJROW
 L	 R0 
COLUMNS
 C0	 OBJROW 	-47	 R0 	3	
 C1	 OBJROW 	-45	 R0 	7	
 C2	 OBJROW 	-92	 R0 	13	
 C3	 OBJROW 	-62	 R0 	17	
 C4	 OBJROW 	-39	 R0 	46	
 C5	 OBJROW 	-8	 R0 	49	
 C6	 OBJROW 	-5	 R0 	52	
 C7	 OBJROW 	-7	 R0 	59	
 C8	 OBJROW 	-28	 R0 	69	
 C9	 OBJROW 	-53	 R0 	70	
 C10	 OBJROW 	-97	 R0 	71	
 C11	 OBJROW 	-62	 R0 	72	
 C12	 OBJROW 	-72	 R0 	76	
 C13	 OBJROW 	-74	 R0 	82	
 C14	 OBJROW 	-14	 R0 	85	
 C15	 OBJROW 	-26	 R0 	86	
 C16	 OBJROW 	-35	 R0 	87	
 C17	 OBJROW 	-8	 R0 	89	
 C18	 OBJROW 	-15	 R0 	91	
 C19	 OBJROW 	-5	 R0 	92	
RHS
 RHS	 R0 	 222	
BOUNDS
 BV BOUND	C0	 1	
 BV BOUND	C1	 1	
 BV BOUND	C2	 1	
 BV BOUND	C3	 1	
 BV BOUND	C4	 1	
 BV BOUND	C5	 1	
 BV BOUND	C6	 1	
 BV BOUND	C7	 1	
 BV BOUND	C8	 1	
 BV BOUND	C9	 1	
 BV BOUND	C10	 1	
 BV BOUND	C11	 1	
 BV BOUND	C12	 1	
 BV BOUND	C13	 1	
 BV BOUND	C14	 1	
 BV BOUND	C15	 1	
 BV BOUND	C16	 1	
 BV BOUND	C17	 1	
 BV BOUND	C18	 1	
 BV BOUND	C19	 1	
ENDATA
