NAME	DNeg_n25k1j4
ROWS
 N 	 OBJROW
 L	 R0 
COLUMNS
 C0	 OBJROW 	-91	 R0 	7	
 C1	 OBJROW 	-62	 R0 	9	
 C2	 OBJROW 	-49	 R0 	10	
 C3	 OBJROW 	-13	 R0 	12	
 C4	 OBJROW 	-62	 R0 	12	
 C5	 OBJROW 	-2	 R0 	23	
 C6	 OBJROW 	-53	 R0 	23	
 C7	 OBJROW 	-20	 R0 	24	
 C8	 OBJROW 	-31	 R0 	24	
 C9	 OBJROW 	-95	 R0 	25	
 C10	 OBJROW 	-8	 R0 	32	
 C11	 OBJROW 	-15	 R0 	33	
 C12	 OBJROW 	-91	 R0 	35	
 C13	 OBJROW 	-29	 R0 	40	
 C14	 OBJROW 	-50	 R0 	47	
 C15	 OBJROW 	-75	 R0 	53	
 C16	 OBJROW 	-92	 R0 	57	
 C17	 OBJROW 	-77	 R0 	66	
 C18	 OBJROW 	-90	 R0 	71	
 C19	 OBJROW 	-11	 R0 	73	
 C20	 OBJROW 	-75	 R0 	74	
 C21	 OBJROW 	-62	 R0 	74	
 C22	 OBJROW 	-38	 R0 	87	
 C23	 OBJROW 	-59	 R0 	90	
 C24	 OBJROW 	-62	 R0 	95	
RHS
 RHS	 R0 	 200	
BOUNDS
 BV BOUND	C0	 1	
 BV BOUND	C1	 1	
 BV BOUND	C2	 1	
 BV BOUND	C3	 1	
 BV BOUND	C4	 1	
 BV BOUND	C5	 1	
 BV BOUND	C6	 1	
 BV BOUND	C7	 1	
 BV BOUND	C8	 1	
 BV BOUND	C9	 1	
 BV BOUND	C10	 1	
 BV BOUND	C11	 1	
 BV BOUND	C12	 1	
 BV BOUND	C13	 1	
 BV BOUND	C14	 1	
 BV BOUND	C15	 1	
 BV BOUND	C16	 1	
 BV BOUND	C17	 1	
 BV BOUND	C18	 1	
 BV BOUND	C19	 1	
 BV BOUND	C20	 1	
 BV BOUND	C21	 1	
 BV BOUND	C22	 1	
 BV BOUND	C23	 1	
 BV BOUND	C24	 1	
ENDATA
