NAME	DNeg_n25k8j2
ROWS
 N 	 OBJROW
 L	 R0 
COLUMNS
 C0	 OBJROW 	-44	 R0 	2	
 C1	 OBJROW 	-82	 R0 	12	
 C2	 OBJROW 	-35	 R0 	23	
 C3	 OBJROW 	-69	 R0 	26	
 C4	 OBJROW 	-97	 R0 	27	
 C5	 OBJROW 	-74	 R0 	31	
 C6	 OBJROW 	-99	 R0 	33	
 C7	 OBJROW 	-37	 R0 	33	
 C8	 OBJROW 	-96	 R0 	34	
 C9	 OBJROW 	-46	 R0 	41	
 C10	 OBJROW 	-68	 R0 	43	
 C11	 OBJROW 	-98	 R0 	48	
 C12	 OBJROW 	-10	 R0 	53	
 C13	 OBJROW 	-86	 R0 	54	
 C14	 OBJROW 	-82	 R0 	55	
 C15	 OBJROW 	-78	 R0 	56	
 C16	 OBJROW 	-6	 R0 	64	
 C17	 OBJROW 	-52	 R0 	66	
 C18	 OBJROW 	-2	 R0 	67	
 C19	 OBJROW 	-72	 R0 	74	
 C20	 OBJROW 	-60	 R0 	75	
 C21	 OBJROW 	-57	 R0 	80	
 C22	 OBJROW 	-62	 R0 	81	
 C23	 OBJROW 	-93	 R0 	85	
 C24	 OBJROW 	-27	 R0 	89	
RHS
 RHS	 R0 	 1025	
BOUNDS
 BV BOUND	C0	 1	
 BV BOUND	C1	 1	
 BV BOUND	C2	 1	
 BV BOUND	C3	 1	
 BV BOUND	C4	 1	
 BV BOUND	C5	 1	
 BV BOUND	C6	 1	
 BV BOUND	C7	 1	
 BV BOUND	C8	 1	
 BV BOUND	C9	 1	
 BV BOUND	C10	 1	
 BV BOUND	C11	 1	
 BV BOUND	C12	 1	
 BV BOUND	C13	 1	
 BV BOUND	C14	 1	
 BV BOUND	C15	 1	
 BV BOUND	C16	 1	
 BV BOUND	C17	 1	
 BV BOUND	C18	 1	
 BV BOUND	C19	 1	
 BV BOUND	C20	 1	
 BV BOUND	C21	 1	
 BV BOUND	C22	 1	
 BV BOUND	C23	 1	
 BV BOUND	C24	 1	
ENDATA
