NAME	DNeg_n25k2j7
ROWS
 N 	 OBJROW
 L	 R0 
COLUMNS
 C0	 OBJROW 	-52	 R0 	2	
 C1	 OBJROW 	-64	 R0 	7	
 C2	 OBJROW 	-57	 R0 	7	
 C3	 OBJROW 	-39	 R0 	16	
 C4	 OBJROW 	-97	 R0 	27	
 C5	 OBJROW 	-87	 R0 	29	
 C6	 OBJROW 	-64	 R0 	32	
 C7	 OBJROW 	-64	 R0 	34	
 C8	 OBJROW 	-26	 R0 	34	
 C9	 OBJROW 	-6	 R0 	39	
 C10	 OBJROW 	-7	 R0 	44	
 C11	 OBJROW 	-39	 R0 	46	
 C12	 OBJROW 	-3	 R0 	48	
 C13	 OBJROW 	-84	 R0 	51	
 C14	 OBJROW 	-36	 R0 	54	
 C15	 OBJROW 	-48	 R0 	62	
 C16	 OBJROW 	-55	 R0 	68	
 C17	 OBJROW 	-28	 R0 	68	
 C18	 OBJROW 	-5	 R0 	70	
 C19	 OBJROW 	-7	 R0 	72	
 C20	 OBJROW 	-73	 R0 	77	
 C21	 OBJROW 	-45	 R0 	90	
 C22	 OBJROW 	-37	 R0 	93	
 C23	 OBJROW 	-97	 R0 	96	
 C24	 OBJROW 	-96	 R0 	96	
RHS
 RHS	 R0 	 345	
BOUNDS
 BV BOUND	C0	 1	
 BV BOUND	C1	 1	
 BV BOUND	C2	 1	
 BV BOUND	C3	 1	
 BV BOUND	C4	 1	
 BV BOUND	C5	 1	
 BV BOUND	C6	 1	
 BV BOUND	C7	 1	
 BV BOUND	C8	 1	
 BV BOUND	C9	 1	
 BV BOUND	C10	 1	
 BV BOUND	C11	 1	
 BV BOUND	C12	 1	
 BV BOUND	C13	 1	
 BV BOUND	C14	 1	
 BV BOUND	C15	 1	
 BV BOUND	C16	 1	
 BV BOUND	C17	 1	
 BV BOUND	C18	 1	
 BV BOUND	C19	 1	
 BV BOUND	C20	 1	
 BV BOUND	C21	 1	
 BV BOUND	C22	 1	
 BV BOUND	C23	 1	
 BV BOUND	C24	 1	
ENDATA
