NAME	DNeg_n25k7j7
ROWS
 N 	 OBJROW
 L	 R0 
COLUMNS
 C0	 OBJROW 	-9	 R0 	3	
 C1	 OBJROW 	-39	 R0 	7	
 C2	 OBJROW 	-85	 R0 	8	
 C3	 OBJROW 	-6	 R0 	12	
 C4	 OBJROW 	-31	 R0 	15	
 C5	 OBJROW 	-63	 R0 	19	
 C6	 OBJROW 	-81	 R0 	24	
 C7	 OBJROW 	-36	 R0 	28	
 C8	 OBJROW 	-19	 R0 	47	
 C9	 OBJROW 	-24	 R0 	50	
 C10	 OBJROW 	-29	 R0 	51	
 C11	 OBJROW 	-81	 R0 	53	
 C12	 OBJROW 	-32	 R0 	53	
 C13	 OBJROW 	-11	 R0 	54	
 C14	 OBJROW 	-38	 R0 	57	
 C15	 OBJROW 	-76	 R0 	61	
 C16	 OBJROW 	-11	 R0 	62	
 C17	 OBJROW 	-15	 R0 	63	
 C18	 OBJROW 	-33	 R0 	64	
 C19	 OBJROW 	-14	 R0 	66	
 C20	 OBJROW 	-69	 R0 	80	
 C21	 OBJROW 	-87	 R0 	81	
 C22	 OBJROW 	-54	 R0 	81	
 C23	 OBJROW 	-84	 R0 	86	
 C24	 OBJROW 	-5	 R0 	99	
RHS
 RHS	 R0 	 891	
BOUNDS
 BV BOUND	C0	 1	
 BV BOUND	C1	 1	
 BV BOUND	C2	 1	
 BV BOUND	C3	 1	
 BV BOUND	C4	 1	
 BV BOUND	C5	 1	
 BV BOUND	C6	 1	
 BV BOUND	C7	 1	
 BV BOUND	C8	 1	
 BV BOUND	C9	 1	
 BV BOUND	C10	 1	
 BV BOUND	C11	 1	
 BV BOUND	C12	 1	
 BV BOUND	C13	 1	
 BV BOUND	C14	 1	
 BV BOUND	C15	 1	
 BV BOUND	C16	 1	
 BV BOUND	C17	 1	
 BV BOUND	C18	 1	
 BV BOUND	C19	 1	
 BV BOUND	C20	 1	
 BV BOUND	C21	 1	
 BV BOUND	C22	 1	
 BV BOUND	C23	 1	
 BV BOUND	C24	 1	
ENDATA
