NAME	DNeg_n30k6j2
ROWS
 N 	 OBJROW
 L	 R0 
COLUMNS
 C0	 OBJROW 	-20	 R0 	8	
 C1	 OBJROW 	-8	 R0 	11	
 C2	 OBJROW 	-89	 R0 	11	
 C3	 OBJROW 	-6	 R0 	15	
 C4	 OBJROW 	-32	 R0 	18	
 C5	 OBJROW 	-15	 R0 	19	
 C6	 OBJROW 	-7	 R0 	19	
 C7	 OBJROW 	-42	 R0 	20	
 C8	 OBJROW 	-51	 R0 	22	
 C9	 OBJROW 	-3	 R0 	23	
 C10	 OBJROW 	-28	 R0 	25	
 C11	 OBJROW 	-40	 R0 	27	
 C12	 OBJROW 	-29	 R0 	35	
 C13	 OBJROW 	-80	 R0 	36	
 C14	 OBJROW 	-23	 R0 	41	
 C15	 OBJROW 	-40	 R0 	45	
 C16	 OBJROW 	-78	 R0 	47	
 C17	 OBJROW 	-25	 R0 	47	
 C18	 OBJROW 	-85	 R0 	48	
 C19	 OBJROW 	-86	 R0 	58	
 C20	 OBJROW 	-9	 R0 	67	
 C21	 OBJROW 	-78	 R0 	69	
 C22	 OBJROW 	-83	 R0 	71	
 C23	 OBJROW 	-1	 R0 	73	
 C24	 OBJROW 	-96	 R0 	75	
 C25	 OBJROW 	-12	 R0 	81	
 C26	 OBJROW 	-13	 R0 	87	
 C27	 OBJROW 	-29	 R0 	91	
 C28	 OBJROW 	-53	 R0 	94	
 C29	 OBJROW 	-9	 R0 	96	
RHS
 RHS	 R0 	 878	
BOUNDS
 BV BOUND	C0	 1	
 BV BOUND	C1	 1	
 BV BOUND	C2	 1	
 BV BOUND	C3	 1	
 BV BOUND	C4	 1	
 BV BOUND	C5	 1	
 BV BOUND	C6	 1	
 BV BOUND	C7	 1	
 BV BOUND	C8	 1	
 BV BOUND	C9	 1	
 BV BOUND	C10	 1	
 BV BOUND	C11	 1	
 BV BOUND	C12	 1	
 BV BOUND	C13	 1	
 BV BOUND	C14	 1	
 BV BOUND	C15	 1	
 BV BOUND	C16	 1	
 BV BOUND	C17	 1	
 BV BOUND	C18	 1	
 BV BOUND	C19	 1	
 BV BOUND	C20	 1	
 BV BOUND	C21	 1	
 BV BOUND	C22	 1	
 BV BOUND	C23	 1	
 BV BOUND	C24	 1	
 BV BOUND	C25	 1	
 BV BOUND	C26	 1	
 BV BOUND	C27	 1	
 BV BOUND	C28	 1	
 BV BOUND	C29	 1	
ENDATA
