NAME	DNeg_n20k3j0
ROWS
 N 	 OBJROW
 L	 R0 
COLUMNS
 C0	 OBJROW 	-12	 R0 	5	
 C1	 OBJROW 	-34	 R0 	11	
 C2	 OBJROW 	-28	 R0 	13	
 C3	 OBJROW 	-69	 R0 	15	
 C4	 OBJROW 	-12	 R0 	17	
 C5	 OBJROW 	-8	 R0 	18	
 C6	 OBJROW 	-57	 R0 	24	
 C7	 OBJROW 	-95	 R0 	28	
 C8	 OBJROW 	-40	 R0 	30	
 C9	 OBJROW 	-4	 R0 	32	
 C10	 OBJROW 	-93	 R0 	33	
 C11	 OBJROW 	-64	 R0 	33	
 C12	 OBJROW 	-45	 R0 	61	
 C13	 OBJROW 	-57	 R0 	70	
 C14	 OBJROW 	-82	 R0 	71	
 C15	 OBJROW 	-66	 R0 	72	
 C16	 OBJROW 	-55	 R0 	82	
 C17	 OBJROW 	-13	 R0 	93	
 C18	 OBJROW 	-33	 R0 	96	
 C19	 OBJROW 	-24	 R0 	98	
RHS
 RHS	 R0 	 328	
BOUNDS
 BV BOUND	C0	 1	
 BV BOUND	C1	 1	
 BV BOUND	C2	 1	
 BV BOUND	C3	 1	
 BV BOUND	C4	 1	
 BV BOUND	C5	 1	
 BV BOUND	C6	 1	
 BV BOUND	C7	 1	
 BV BOUND	C8	 1	
 BV BOUND	C9	 1	
 BV BOUND	C10	 1	
 BV BOUND	C11	 1	
 BV BOUND	C12	 1	
 BV BOUND	C13	 1	
 BV BOUND	C14	 1	
 BV BOUND	C15	 1	
 BV BOUND	C16	 1	
 BV BOUND	C17	 1	
 BV BOUND	C18	 1	
 BV BOUND	C19	 1	
ENDATA
