NAME	DNeg_n25k4j3
ROWS
 N 	 OBJROW
 L	 R0 
COLUMNS
 C0	 OBJROW 	-72	 R0 	4	
 C1	 OBJROW 	-15	 R0 	4	
 C2	 OBJROW 	-16	 R0 	13	
 C3	 OBJROW 	-3	 R0 	15	
 C4	 OBJROW 	-76	 R0 	17	
 C5	 OBJROW 	-56	 R0 	35	
 C6	 OBJROW 	-99	 R0 	36	
 C7	 OBJROW 	-87	 R0 	40	
 C8	 OBJROW 	-29	 R0 	45	
 C9	 OBJROW 	-11	 R0 	48	
 C10	 OBJROW 	-11	 R0 	49	
 C11	 OBJROW 	-92	 R0 	51	
 C12	 OBJROW 	-75	 R0 	55	
 C13	 OBJROW 	-56	 R0 	61	
 C14	 OBJROW 	-65	 R0 	61	
 C15	 OBJROW 	-58	 R0 	64	
 C16	 OBJROW 	-47	 R0 	66	
 C17	 OBJROW 	-8	 R0 	73	
 C18	 OBJROW 	-30	 R0 	75	
 C19	 OBJROW 	-33	 R0 	75	
 C20	 OBJROW 	-12	 R0 	81	
 C21	 OBJROW 	-25	 R0 	82	
 C22	 OBJROW 	-43	 R0 	92	
 C23	 OBJROW 	-93	 R0 	94	
 C24	 OBJROW 	-57	 R0 	96	
RHS
 RHS	 R0 	 606	
BOUNDS
 BV BOUND	C0	 1	
 BV BOUND	C1	 1	
 BV BOUND	C2	 1	
 BV BOUND	C3	 1	
 BV BOUND	C4	 1	
 BV BOUND	C5	 1	
 BV BOUND	C6	 1	
 BV BOUND	C7	 1	
 BV BOUND	C8	 1	
 BV BOUND	C9	 1	
 BV BOUND	C10	 1	
 BV BOUND	C11	 1	
 BV BOUND	C12	 1	
 BV BOUND	C13	 1	
 BV BOUND	C14	 1	
 BV BOUND	C15	 1	
 BV BOUND	C16	 1	
 BV BOUND	C17	 1	
 BV BOUND	C18	 1	
 BV BOUND	C19	 1	
 BV BOUND	C20	 1	
 BV BOUND	C21	 1	
 BV BOUND	C22	 1	
 BV BOUND	C23	 1	
 BV BOUND	C24	 1	
ENDATA
