NAME	DNeg_n25k0j0
ROWS
 N 	 OBJROW
 L	 R0 
COLUMNS
 C0	 OBJROW 	-68	 R0 	7	
 C1	 OBJROW 	-49	 R0 	9	
 C2	 OBJROW 	-32	 R0 	10	
 C3	 OBJROW 	-11	 R0 	11	
 C4	 OBJROW 	-52	 R0 	11	
 C5	 OBJROW 	-65	 R0 	20	
 C6	 OBJROW 	-88	 R0 	33	
 C7	 OBJROW 	-1	 R0 	40	
 C8	 OBJROW 	-5	 R0 	42	
 C9	 OBJROW 	-22	 R0 	42	
 C10	 OBJROW 	-98	 R0 	44	
 C11	 OBJROW 	-32	 R0 	46	
 C12	 OBJROW 	-52	 R0 	50	
 C13	 OBJROW 	-31	 R0 	51	
 C14	 OBJROW 	-26	 R0 	52	
 C15	 OBJROW 	-29	 R0 	54	
 C16	 OBJROW 	-22	 R0 	63	
 C17	 OBJROW 	-48	 R0 	65	
 C18	 OBJROW 	-83	 R0 	67	
 C19	 OBJROW 	-86	 R0 	75	
 C20	 OBJROW 	-5	 R0 	83	
 C21	 OBJROW 	-93	 R0 	85	
 C22	 OBJROW 	-98	 R0 	90	
 C23	 OBJROW 	-16	 R0 	93	
 C24	 OBJROW 	-3	 R0 	96	
RHS
 RHS	 R0 	 113	
BOUNDS
 BV BOUND	C0	 1	
 BV BOUND	C1	 1	
 BV BOUND	C2	 1	
 BV BOUND	C3	 1	
 BV BOUND	C4	 1	
 BV BOUND	C5	 1	
 BV BOUND	C6	 1	
 BV BOUND	C7	 1	
 BV BOUND	C8	 1	
 BV BOUND	C9	 1	
 BV BOUND	C10	 1	
 BV BOUND	C11	 1	
 BV BOUND	C12	 1	
 BV BOUND	C13	 1	
 BV BOUND	C14	 1	
 BV BOUND	C15	 1	
 BV BOUND	C16	 1	
 BV BOUND	C17	 1	
 BV BOUND	C18	 1	
 BV BOUND	C19	 1	
 BV BOUND	C20	 1	
 BV BOUND	C21	 1	
 BV BOUND	C22	 1	
 BV BOUND	C23	 1	
 BV BOUND	C24	 1	
ENDATA
