NAME	DNeg_n15k5j0
ROWS
 N 	 OBJROW
 L	 R0 
COLUMNS
 C0	 OBJROW 	-6	 R0 	6	
 C1	 OBJROW 	-77	 R0 	10	
 C2	 OBJROW 	-35	 R0 	12	
 C3	 OBJROW 	-38	 R0 	13	
 C4	 OBJROW 	-37	 R0 	25	
 C5	 OBJROW 	-57	 R0 	47	
 C6	 OBJROW 	-7	 R0 	55	
 C7	 OBJROW 	-51	 R0 	56	
 C8	 OBJROW 	-8	 R0 	64	
 C9	 OBJROW 	-15	 R0 	65	
 C10	 OBJROW 	-69	 R0 	78	
 C11	 OBJROW 	-97	 R0 	81	
 C12	 OBJROW 	-46	 R0 	83	
 C13	 OBJROW 	-41	 R0 	90	
 C14	 OBJROW 	-6	 R0 	91	
RHS
 RHS	 R0 	 424	
BOUNDS
 BV BOUND	C0	 1	
 BV BOUND	C1	 1	
 BV BOUND	C2	 1	
 BV BOUND	C3	 1	
 BV BOUND	C4	 1	
 BV BOUND	C5	 1	
 BV BOUND	C6	 1	
 BV BOUND	C7	 1	
 BV BOUND	C8	 1	
 BV BOUND	C9	 1	
 BV BOUND	C10	 1	
 BV BOUND	C11	 1	
 BV BOUND	C12	 1	
 BV BOUND	C13	 1	
 BV BOUND	C14	 1	
ENDATA
