NAME	DNeg_n25k4j9
ROWS
 N 	 OBJROW
 L	 R0 
COLUMNS
 C0	 OBJROW 	-14	 R0 	18	
 C1	 OBJROW 	-72	 R0 	22	
 C2	 OBJROW 	-57	 R0 	24	
 C3	 OBJROW 	-85	 R0 	26	
 C4	 OBJROW 	-60	 R0 	32	
 C5	 OBJROW 	-60	 R0 	36	
 C6	 OBJROW 	-63	 R0 	36	
 C7	 OBJROW 	-60	 R0 	36	
 C8	 OBJROW 	-46	 R0 	38	
 C9	 OBJROW 	-57	 R0 	42	
 C10	 OBJROW 	-14	 R0 	42	
 C11	 OBJROW 	-37	 R0 	45	
 C12	 OBJROW 	-78	 R0 	48	
 C13	 OBJROW 	-21	 R0 	49	
 C14	 OBJROW 	-87	 R0 	49	
 C15	 OBJROW 	-66	 R0 	51	
 C16	 OBJROW 	-34	 R0 	53	
 C17	 OBJROW 	-19	 R0 	57	
 C18	 OBJROW 	-57	 R0 	59	
 C19	 OBJROW 	-12	 R0 	62	
 C20	 OBJROW 	-83	 R0 	74	
 C21	 OBJROW 	-23	 R0 	80	
 C22	 OBJROW 	-4	 R0 	83	
 C23	 OBJROW 	-6	 R0 	96	
 C24	 OBJROW 	-79	 R0 	97	
RHS
 RHS	 R0 	 571	
BOUNDS
 BV BOUND	C0	 1	
 BV BOUND	C1	 1	
 BV BOUND	C2	 1	
 BV BOUND	C3	 1	
 BV BOUND	C4	 1	
 BV BOUND	C5	 1	
 BV BOUND	C6	 1	
 BV BOUND	C7	 1	
 BV BOUND	C8	 1	
 BV BOUND	C9	 1	
 BV BOUND	C10	 1	
 BV BOUND	C11	 1	
 BV BOUND	C12	 1	
 BV BOUND	C13	 1	
 BV BOUND	C14	 1	
 BV BOUND	C15	 1	
 BV BOUND	C16	 1	
 BV BOUND	C17	 1	
 BV BOUND	C18	 1	
 BV BOUND	C19	 1	
 BV BOUND	C20	 1	
 BV BOUND	C21	 1	
 BV BOUND	C22	 1	
 BV BOUND	C23	 1	
 BV BOUND	C24	 1	
ENDATA
