NAME	DNeg_n20k2j7
ROWS
 N 	 OBJROW
 L	 R0 
COLUMNS
 C0	 OBJROW 	-74	 R0 	3	
 C1	 OBJROW 	-29	 R0 	3	
 C2	 OBJROW 	-37	 R0 	13	
 C3	 OBJROW 	-79	 R0 	17	
 C4	 OBJROW 	-43	 R0 	21	
 C5	 OBJROW 	-31	 R0 	38	
 C6	 OBJROW 	-82	 R0 	38	
 C7	 OBJROW 	-48	 R0 	53	
 C8	 OBJROW 	-98	 R0 	53	
 C9	 OBJROW 	-96	 R0 	54	
 C10	 OBJROW 	-77	 R0 	69	
 C11	 OBJROW 	-53	 R0 	80	
 C12	 OBJROW 	-53	 R0 	83	
 C13	 OBJROW 	-57	 R0 	86	
 C14	 OBJROW 	-31	 R0 	86	
 C15	 OBJROW 	-41	 R0 	88	
 C16	 OBJROW 	-69	 R0 	93	
 C17	 OBJROW 	-8	 R0 	94	
 C18	 OBJROW 	-1	 R0 	95	
 C19	 OBJROW 	-31	 R0 	97	
RHS
 RHS	 R0 	 318	
BOUNDS
 BV BOUND	C0	 1	
 BV BOUND	C1	 1	
 BV BOUND	C2	 1	
 BV BOUND	C3	 1	
 BV BOUND	C4	 1	
 BV BOUND	C5	 1	
 BV BOUND	C6	 1	
 BV BOUND	C7	 1	
 BV BOUND	C8	 1	
 BV BOUND	C9	 1	
 BV BOUND	C10	 1	
 BV BOUND	C11	 1	
 BV BOUND	C12	 1	
 BV BOUND	C13	 1	
 BV BOUND	C14	 1	
 BV BOUND	C15	 1	
 BV BOUND	C16	 1	
 BV BOUND	C17	 1	
 BV BOUND	C18	 1	
 BV BOUND	C19	 1	
ENDATA
