NAME	DNeg_n30k2j6
ROWS
 N 	 OBJROW
 L	 R0 
COLUMNS
 C0	 OBJROW 	-61	 R0 	4	
 C1	 OBJROW 	-74	 R0 	11	
 C2	 OBJROW 	-60	 R0 	12	
 C3	 OBJROW 	-70	 R0 	13	
 C4	 OBJROW 	-57	 R0 	14	
 C5	 OBJROW 	-67	 R0 	14	
 C6	 OBJROW 	-40	 R0 	15	
 C7	 OBJROW 	-21	 R0 	15	
 C8	 OBJROW 	-23	 R0 	22	
 C9	 OBJROW 	-41	 R0 	22	
 C10	 OBJROW 	-61	 R0 	23	
 C11	 OBJROW 	-48	 R0 	31	
 C12	 OBJROW 	-14	 R0 	35	
 C13	 OBJROW 	-78	 R0 	36	
 C14	 OBJROW 	-98	 R0 	39	
 C15	 OBJROW 	-94	 R0 	40	
 C16	 OBJROW 	-78	 R0 	40	
 C17	 OBJROW 	-16	 R0 	45	
 C18	 OBJROW 	-24	 R0 	46	
 C19	 OBJROW 	-13	 R0 	50	
 C20	 OBJROW 	-10	 R0 	53	
 C21	 OBJROW 	-67	 R0 	69	
 C22	 OBJROW 	-99	 R0 	72	
 C23	 OBJROW 	-75	 R0 	77	
 C24	 OBJROW 	-64	 R0 	78	
 C25	 OBJROW 	-46	 R0 	80	
 C26	 OBJROW 	-41	 R0 	87	
 C27	 OBJROW 	-70	 R0 	91	
 C28	 OBJROW 	-53	 R0 	94	
 C29	 OBJROW 	-96	 R0 	97	
RHS
 RHS	 R0 	 362	
BOUNDS
 BV BOUND	C0	 1	
 BV BOUND	C1	 1	
 BV BOUND	C2	 1	
 BV BOUND	C3	 1	
 BV BOUND	C4	 1	
 BV BOUND	C5	 1	
 BV BOUND	C6	 1	
 BV BOUND	C7	 1	
 BV BOUND	C8	 1	
 BV BOUND	C9	 1	
 BV BOUND	C10	 1	
 BV BOUND	C11	 1	
 BV BOUND	C12	 1	
 BV BOUND	C13	 1	
 BV BOUND	C14	 1	
 BV BOUND	C15	 1	
 BV BOUND	C16	 1	
 BV BOUND	C17	 1	
 BV BOUND	C18	 1	
 BV BOUND	C19	 1	
 BV BOUND	C20	 1	
 BV BOUND	C21	 1	
 BV BOUND	C22	 1	
 BV BOUND	C23	 1	
 BV BOUND	C24	 1	
 BV BOUND	C25	 1	
 BV BOUND	C26	 1	
 BV BOUND	C27	 1	
 BV BOUND	C28	 1	
 BV BOUND	C29	 1	
ENDATA
