NAME	DNeg_n30k6j5
ROWS
 N 	 OBJROW
 L	 R0 
COLUMNS
 C0	 OBJROW 	-86	 R0 	2	
 C1	 OBJROW 	-90	 R0 	3	
 C2	 OBJROW 	-22	 R0 	7	
 C3	 OBJROW 	-7	 R0 	10	
 C4	 OBJROW 	-56	 R0 	11	
 C5	 OBJROW 	-37	 R0 	12	
 C6	 OBJROW 	-25	 R0 	12	
 C7	 OBJROW 	-25	 R0 	14	
 C8	 OBJROW 	-30	 R0 	14	
 C9	 OBJROW 	-15	 R0 	17	
 C10	 OBJROW 	-87	 R0 	23	
 C11	 OBJROW 	-29	 R0 	25	
 C12	 OBJROW 	-52	 R0 	25	
 C13	 OBJROW 	-78	 R0 	27	
 C14	 OBJROW 	-1	 R0 	31	
 C15	 OBJROW 	-55	 R0 	47	
 C16	 OBJROW 	-85	 R0 	48	
 C17	 OBJROW 	-36	 R0 	51	
 C18	 OBJROW 	-89	 R0 	53	
 C19	 OBJROW 	-61	 R0 	54	
 C20	 OBJROW 	-85	 R0 	62	
 C21	 OBJROW 	-35	 R0 	63	
 C22	 OBJROW 	-34	 R0 	66	
 C23	 OBJROW 	-70	 R0 	68	
 C24	 OBJROW 	-65	 R0 	70	
 C25	 OBJROW 	-68	 R0 	75	
 C26	 OBJROW 	-58	 R0 	81	
 C27	 OBJROW 	-24	 R0 	82	
 C28	 OBJROW 	-42	 R0 	86	
 C29	 OBJROW 	-25	 R0 	97	
RHS
 RHS	 R0 	 787	
BOUNDS
 BV BOUND	C0	 1	
 BV BOUND	C1	 1	
 BV BOUND	C2	 1	
 BV BOUND	C3	 1	
 BV BOUND	C4	 1	
 BV BOUND	C5	 1	
 BV BOUND	C6	 1	
 BV BOUND	C7	 1	
 BV BOUND	C8	 1	
 BV BOUND	C9	 1	
 BV BOUND	C10	 1	
 BV BOUND	C11	 1	
 BV BOUND	C12	 1	
 BV BOUND	C13	 1	
 BV BOUND	C14	 1	
 BV BOUND	C15	 1	
 BV BOUND	C16	 1	
 BV BOUND	C17	 1	
 BV BOUND	C18	 1	
 BV BOUND	C19	 1	
 BV BOUND	C20	 1	
 BV BOUND	C21	 1	
 BV BOUND	C22	 1	
 BV BOUND	C23	 1	
 BV BOUND	C24	 1	
 BV BOUND	C25	 1	
 BV BOUND	C26	 1	
 BV BOUND	C27	 1	
 BV BOUND	C28	 1	
 BV BOUND	C29	 1	
ENDATA
