NAME	DNeg_n20k2j4
ROWS
 N 	 OBJROW
 L	 R0 
COLUMNS
 C0	 OBJROW 	-66	 R0 	6	
 C1	 OBJROW 	-71	 R0 	6	
 C2	 OBJROW 	-93	 R0 	7	
 C3	 OBJROW 	-4	 R0 	10	
 C4	 OBJROW 	-38	 R0 	16	
 C5	 OBJROW 	-43	 R0 	18	
 C6	 OBJROW 	-7	 R0 	19	
 C7	 OBJROW 	-86	 R0 	19	
 C8	 OBJROW 	-84	 R0 	27	
 C9	 OBJROW 	-28	 R0 	29	
 C10	 OBJROW 	-91	 R0 	33	
 C11	 OBJROW 	-21	 R0 	34	
 C12	 OBJROW 	-20	 R0 	37	
 C13	 OBJROW 	-10	 R0 	39	
 C14	 OBJROW 	-58	 R0 	42	
 C15	 OBJROW 	-64	 R0 	51	
 C16	 OBJROW 	-8	 R0 	61	
 C17	 OBJROW 	-95	 R0 	80	
 C18	 OBJROW 	-6	 R0 	88	
 C19	 OBJROW 	-51	 R0 	97	
RHS
 RHS	 R0 	 197	
BOUNDS
 BV BOUND	C0	 1	
 BV BOUND	C1	 1	
 BV BOUND	C2	 1	
 BV BOUND	C3	 1	
 BV BOUND	C4	 1	
 BV BOUND	C5	 1	
 BV BOUND	C6	 1	
 BV BOUND	C7	 1	
 BV BOUND	C8	 1	
 BV BOUND	C9	 1	
 BV BOUND	C10	 1	
 BV BOUND	C11	 1	
 BV BOUND	C12	 1	
 BV BOUND	C13	 1	
 BV BOUND	C14	 1	
 BV BOUND	C15	 1	
 BV BOUND	C16	 1	
 BV BOUND	C17	 1	
 BV BOUND	C18	 1	
 BV BOUND	C19	 1	
ENDATA
