NAME	DNeg_n30k5j4
ROWS
 N 	 OBJROW
 L	 R0 
COLUMNS
 C0	 OBJROW 	-4	 R0 	1	
 C1	 OBJROW 	-86	 R0 	2	
 C2	 OBJROW 	-72	 R0 	3	
 C3	 OBJROW 	-22	 R0 	7	
 C4	 OBJROW 	-72	 R0 	20	
 C5	 OBJROW 	-78	 R0 	21	
 C6	 OBJROW 	-89	 R0 	23	
 C7	 OBJROW 	-65	 R0 	23	
 C8	 OBJROW 	-85	 R0 	34	
 C9	 OBJROW 	-37	 R0 	42	
 C10	 OBJROW 	-66	 R0 	46	
 C11	 OBJROW 	-11	 R0 	47	
 C12	 OBJROW 	-51	 R0 	49	
 C13	 OBJROW 	-59	 R0 	51	
 C14	 OBJROW 	-4	 R0 	54	
 C15	 OBJROW 	-61	 R0 	57	
 C16	 OBJROW 	-44	 R0 	63	
 C17	 OBJROW 	-83	 R0 	65	
 C18	 OBJROW 	-50	 R0 	65	
 C19	 OBJROW 	-97	 R0 	66	
 C20	 OBJROW 	-62	 R0 	68	
 C21	 OBJROW 	-53	 R0 	69	
 C22	 OBJROW 	-7	 R0 	69	
 C23	 OBJROW 	-28	 R0 	70	
 C24	 OBJROW 	-92	 R0 	73	
 C25	 OBJROW 	-1	 R0 	75	
 C26	 OBJROW 	-40	 R0 	77	
 C27	 OBJROW 	-49	 R0 	78	
 C28	 OBJROW 	-5	 R0 	89	
 C29	 OBJROW 	-71	 R0 	95	
RHS
 RHS	 R0 	 820	
BOUNDS
 BV BOUND	C0	 1	
 BV BOUND	C1	 1	
 BV BOUND	C2	 1	
 BV BOUND	C3	 1	
 BV BOUND	C4	 1	
 BV BOUND	C5	 1	
 BV BOUND	C6	 1	
 BV BOUND	C7	 1	
 BV BOUND	C8	 1	
 BV BOUND	C9	 1	
 BV BOUND	C10	 1	
 BV BOUND	C11	 1	
 BV BOUND	C12	 1	
 BV BOUND	C13	 1	
 BV BOUND	C14	 1	
 BV BOUND	C15	 1	
 BV BOUND	C16	 1	
 BV BOUND	C17	 1	
 BV BOUND	C18	 1	
 BV BOUND	C19	 1	
 BV BOUND	C20	 1	
 BV BOUND	C21	 1	
 BV BOUND	C22	 1	
 BV BOUND	C23	 1	
 BV BOUND	C24	 1	
 BV BOUND	C25	 1	
 BV BOUND	C26	 1	
 BV BOUND	C27	 1	
 BV BOUND	C28	 1	
 BV BOUND	C29	 1	
ENDATA
