NAME	DNeg_n25k3j5
ROWS
 N 	 OBJROW
 L	 R0 
COLUMNS
 C0	 OBJROW 	-50	 R0 	2	
 C1	 OBJROW 	-3	 R0 	4	
 C2	 OBJROW 	-15	 R0 	4	
 C3	 OBJROW 	-44	 R0 	18	
 C4	 OBJROW 	-11	 R0 	20	
 C5	 OBJROW 	-58	 R0 	29	
 C6	 OBJROW 	-15	 R0 	33	
 C7	 OBJROW 	-7	 R0 	34	
 C8	 OBJROW 	-12	 R0 	45	
 C9	 OBJROW 	-9	 R0 	48	
 C10	 OBJROW 	-62	 R0 	49	
 C11	 OBJROW 	-47	 R0 	67	
 C12	 OBJROW 	-61	 R0 	69	
 C13	 OBJROW 	-79	 R0 	70	
 C14	 OBJROW 	-24	 R0 	72	
 C15	 OBJROW 	-28	 R0 	73	
 C16	 OBJROW 	-4	 R0 	73	
 C17	 OBJROW 	-74	 R0 	74	
 C18	 OBJROW 	-35	 R0 	76	
 C19	 OBJROW 	-17	 R0 	77	
 C20	 OBJROW 	-83	 R0 	77	
 C21	 OBJROW 	-56	 R0 	78	
 C22	 OBJROW 	-31	 R0 	89	
 C23	 OBJROW 	-2	 R0 	91	
 C24	 OBJROW 	-85	 R0 	94	
RHS
 RHS	 R0 	 497	
BOUNDS
 BV BOUND	C0	 1	
 BV BOUND	C1	 1	
 BV BOUND	C2	 1	
 BV BOUND	C3	 1	
 BV BOUND	C4	 1	
 BV BOUND	C5	 1	
 BV BOUND	C6	 1	
 BV BOUND	C7	 1	
 BV BOUND	C8	 1	
 BV BOUND	C9	 1	
 BV BOUND	C10	 1	
 BV BOUND	C11	 1	
 BV BOUND	C12	 1	
 BV BOUND	C13	 1	
 BV BOUND	C14	 1	
 BV BOUND	C15	 1	
 BV BOUND	C16	 1	
 BV BOUND	C17	 1	
 BV BOUND	C18	 1	
 BV BOUND	C19	 1	
 BV BOUND	C20	 1	
 BV BOUND	C21	 1	
 BV BOUND	C22	 1	
 BV BOUND	C23	 1	
 BV BOUND	C24	 1	
ENDATA
