NAME	DNeg_n25k0j2
ROWS
 N 	 OBJROW
 L	 R0 
COLUMNS
 C0	 OBJROW 	-16	 R0 	3	
 C1	 OBJROW 	-21	 R0 	6	
 C2	 OBJROW 	-76	 R0 	10	
 C3	 OBJROW 	-88	 R0 	18	
 C4	 OBJROW 	-27	 R0 	23	
 C5	 OBJROW 	-86	 R0 	23	
 C6	 OBJROW 	-90	 R0 	31	
 C7	 OBJROW 	-99	 R0 	31	
 C8	 OBJROW 	-9	 R0 	33	
 C9	 OBJROW 	-35	 R0 	36	
 C10	 OBJROW 	-75	 R0 	41	
 C11	 OBJROW 	-89	 R0 	43	
 C12	 OBJROW 	-67	 R0 	47	
 C13	 OBJROW 	-22	 R0 	48	
 C14	 OBJROW 	-14	 R0 	50	
 C15	 OBJROW 	-50	 R0 	57	
 C16	 OBJROW 	-4	 R0 	58	
 C17	 OBJROW 	-20	 R0 	62	
 C18	 OBJROW 	-87	 R0 	70	
 C19	 OBJROW 	-74	 R0 	81	
 C20	 OBJROW 	-81	 R0 	91	
 C21	 OBJROW 	-65	 R0 	91	
 C22	 OBJROW 	-50	 R0 	92	
 C23	 OBJROW 	-23	 R0 	92	
 C24	 OBJROW 	-53	 R0 	96	
RHS
 RHS	 R0 	 113	
BOUNDS
 BV BOUND	C0	 1	
 BV BOUND	C1	 1	
 BV BOUND	C2	 1	
 BV BOUND	C3	 1	
 BV BOUND	C4	 1	
 BV BOUND	C5	 1	
 BV BOUND	C6	 1	
 BV BOUND	C7	 1	
 BV BOUND	C8	 1	
 BV BOUND	C9	 1	
 BV BOUND	C10	 1	
 BV BOUND	C11	 1	
 BV BOUND	C12	 1	
 BV BOUND	C13	 1	
 BV BOUND	C14	 1	
 BV BOUND	C15	 1	
 BV BOUND	C16	 1	
 BV BOUND	C17	 1	
 BV BOUND	C18	 1	
 BV BOUND	C19	 1	
 BV BOUND	C20	 1	
 BV BOUND	C21	 1	
 BV BOUND	C22	 1	
 BV BOUND	C23	 1	
 BV BOUND	C24	 1	
ENDATA
