NAME	DNeg_n20k1j5
ROWS
 N 	 OBJROW
 L	 R0 
COLUMNS
 C0	 OBJROW 	-18	 R0 	4	
 C1	 OBJROW 	-63	 R0 	14	
 C2	 OBJROW 	-61	 R0 	15	
 C3	 OBJROW 	-88	 R0 	16	
 C4	 OBJROW 	-88	 R0 	18	
 C5	 OBJROW 	-40	 R0 	24	
 C6	 OBJROW 	-16	 R0 	24	
 C7	 OBJROW 	-49	 R0 	27	
 C8	 OBJROW 	-55	 R0 	46	
 C9	 OBJROW 	-89	 R0 	47	
 C10	 OBJROW 	-69	 R0 	56	
 C11	 OBJROW 	-24	 R0 	64	
 C12	 OBJROW 	-44	 R0 	68	
 C13	 OBJROW 	-78	 R0 	73	
 C14	 OBJROW 	-28	 R0 	78	
 C15	 OBJROW 	-34	 R0 	80	
 C16	 OBJROW 	-13	 R0 	88	
 C17	 OBJROW 	-69	 R0 	88	
 C18	 OBJROW 	-30	 R0 	90	
 C19	 OBJROW 	-8	 R0 	96	
RHS
 RHS	 R0 	 185	
BOUNDS
 BV BOUND	C0	 1	
 BV BOUND	C1	 1	
 BV BOUND	C2	 1	
 BV BOUND	C3	 1	
 BV BOUND	C4	 1	
 BV BOUND	C5	 1	
 BV BOUND	C6	 1	
 BV BOUND	C7	 1	
 BV BOUND	C8	 1	
 BV BOUND	C9	 1	
 BV BOUND	C10	 1	
 BV BOUND	C11	 1	
 BV BOUND	C12	 1	
 BV BOUND	C13	 1	
 BV BOUND	C14	 1	
 BV BOUND	C15	 1	
 BV BOUND	C16	 1	
 BV BOUND	C17	 1	
 BV BOUND	C18	 1	
 BV BOUND	C19	 1	
ENDATA
