NAME	DNeg_n30k2j3
ROWS
 N 	 OBJROW
 L	 R0 
COLUMNS
 C0	 OBJROW 	-32	 R0 	1	
 C1	 OBJROW 	-14	 R0 	3	
 C2	 OBJROW 	-94	 R0 	3	
 C3	 OBJROW 	-15	 R0 	4	
 C4	 OBJROW 	-84	 R0 	6	
 C5	 OBJROW 	-55	 R0 	12	
 C6	 OBJROW 	-54	 R0 	23	
 C7	 OBJROW 	-92	 R0 	27	
 C8	 OBJROW 	-89	 R0 	27	
 C9	 OBJROW 	-4	 R0 	32	
 C10	 OBJROW 	-41	 R0 	42	
 C11	 OBJROW 	-74	 R0 	45	
 C12	 OBJROW 	-73	 R0 	51	
 C13	 OBJROW 	-49	 R0 	52	
 C14	 OBJROW 	-48	 R0 	56	
 C15	 OBJROW 	-81	 R0 	57	
 C16	 OBJROW 	-87	 R0 	63	
 C17	 OBJROW 	-94	 R0 	66	
 C18	 OBJROW 	-88	 R0 	67	
 C19	 OBJROW 	-90	 R0 	67	
 C20	 OBJROW 	-27	 R0 	68	
 C21	 OBJROW 	-22	 R0 	69	
 C22	 OBJROW 	-6	 R0 	71	
 C23	 OBJROW 	-54	 R0 	74	
 C24	 OBJROW 	-50	 R0 	79	
 C25	 OBJROW 	-24	 R0 	84	
 C26	 OBJROW 	-73	 R0 	88	
 C27	 OBJROW 	-93	 R0 	91	
 C28	 OBJROW 	-77	 R0 	93	
 C29	 OBJROW 	-27	 R0 	93	
RHS
 RHS	 R0 	 413	
BOUNDS
 BV BOUND	C0	 1	
 BV BOUND	C1	 1	
 BV BOUND	C2	 1	
 BV BOUND	C3	 1	
 BV BOUND	C4	 1	
 BV BOUND	C5	 1	
 BV BOUND	C6	 1	
 BV BOUND	C7	 1	
 BV BOUND	C8	 1	
 BV BOUND	C9	 1	
 BV BOUND	C10	 1	
 BV BOUND	C11	 1	
 BV BOUND	C12	 1	
 BV BOUND	C13	 1	
 BV BOUND	C14	 1	
 BV BOUND	C15	 1	
 BV BOUND	C16	 1	
 BV BOUND	C17	 1	
 BV BOUND	C18	 1	
 BV BOUND	C19	 1	
 BV BOUND	C20	 1	
 BV BOUND	C21	 1	
 BV BOUND	C22	 1	
 BV BOUND	C23	 1	
 BV BOUND	C24	 1	
 BV BOUND	C25	 1	
 BV BOUND	C26	 1	
 BV BOUND	C27	 1	
 BV BOUND	C28	 1	
 BV BOUND	C29	 1	
ENDATA
