NAME	DNeg_n25k5j7
ROWS
 N 	 OBJROW
 L	 R0 
COLUMNS
 C0	 OBJROW 	-86	 R0 	2	
 C1	 OBJROW 	-1	 R0 	8	
 C2	 OBJROW 	-95	 R0 	11	
 C3	 OBJROW 	-28	 R0 	18	
 C4	 OBJROW 	-75	 R0 	29	
 C5	 OBJROW 	-69	 R0 	30	
 C6	 OBJROW 	-36	 R0 	36	
 C7	 OBJROW 	-91	 R0 	39	
 C8	 OBJROW 	-23	 R0 	40	
 C9	 OBJROW 	-55	 R0 	44	
 C10	 OBJROW 	-3	 R0 	46	
 C11	 OBJROW 	-77	 R0 	52	
 C12	 OBJROW 	-91	 R0 	52	
 C13	 OBJROW 	-27	 R0 	55	
 C14	 OBJROW 	-9	 R0 	56	
 C15	 OBJROW 	-10	 R0 	65	
 C16	 OBJROW 	-58	 R0 	66	
 C17	 OBJROW 	-1	 R0 	71	
 C18	 OBJROW 	-72	 R0 	74	
 C19	 OBJROW 	-81	 R0 	75	
 C20	 OBJROW 	-34	 R0 	82	
 C21	 OBJROW 	-11	 R0 	89	
 C22	 OBJROW 	-81	 R0 	94	
 C23	 OBJROW 	-6	 R0 	96	
 C24	 OBJROW 	-52	 R0 	97	
RHS
 RHS	 R0 	 724	
BOUNDS
 BV BOUND	C0	 1	
 BV BOUND	C1	 1	
 BV BOUND	C2	 1	
 BV BOUND	C3	 1	
 BV BOUND	C4	 1	
 BV BOUND	C5	 1	
 BV BOUND	C6	 1	
 BV BOUND	C7	 1	
 BV BOUND	C8	 1	
 BV BOUND	C9	 1	
 BV BOUND	C10	 1	
 BV BOUND	C11	 1	
 BV BOUND	C12	 1	
 BV BOUND	C13	 1	
 BV BOUND	C14	 1	
 BV BOUND	C15	 1	
 BV BOUND	C16	 1	
 BV BOUND	C17	 1	
 BV BOUND	C18	 1	
 BV BOUND	C19	 1	
 BV BOUND	C20	 1	
 BV BOUND	C21	 1	
 BV BOUND	C22	 1	
 BV BOUND	C23	 1	
 BV BOUND	C24	 1	
ENDATA
