NAME	DNeg_n20k5j1
ROWS
 N 	 OBJROW
 L	 R0 
COLUMNS
 C0	 OBJROW 	-36	 R0 	3	
 C1	 OBJROW 	-48	 R0 	5	
 C2	 OBJROW 	-38	 R0 	11	
 C3	 OBJROW 	-66	 R0 	28	
 C4	 OBJROW 	-60	 R0 	30	
 C5	 OBJROW 	-7	 R0 	31	
 C6	 OBJROW 	-61	 R0 	37	
 C7	 OBJROW 	-66	 R0 	45	
 C8	 OBJROW 	-94	 R0 	55	
 C9	 OBJROW 	-6	 R0 	55	
 C10	 OBJROW 	-22	 R0 	63	
 C11	 OBJROW 	-17	 R0 	64	
 C12	 OBJROW 	-48	 R0 	67	
 C13	 OBJROW 	-84	 R0 	69	
 C14	 OBJROW 	-47	 R0 	72	
 C15	 OBJROW 	-60	 R0 	73	
 C16	 OBJROW 	-83	 R0 	74	
 C17	 OBJROW 	-53	 R0 	75	
 C18	 OBJROW 	-69	 R0 	92	
 C19	 OBJROW 	-89	 R0 	94	
RHS
 RHS	 R0 	 569	
BOUNDS
 BV BOUND	C0	 1	
 BV BOUND	C1	 1	
 BV BOUND	C2	 1	
 BV BOUND	C3	 1	
 BV BOUND	C4	 1	
 BV BOUND	C5	 1	
 BV BOUND	C6	 1	
 BV BOUND	C7	 1	
 BV BOUND	C8	 1	
 BV BOUND	C9	 1	
 BV BOUND	C10	 1	
 BV BOUND	C11	 1	
 BV BOUND	C12	 1	
 BV BOUND	C13	 1	
 BV BOUND	C14	 1	
 BV BOUND	C15	 1	
 BV BOUND	C16	 1	
 BV BOUND	C17	 1	
 BV BOUND	C18	 1	
 BV BOUND	C19	 1	
ENDATA
