NAME	DNeg_n30k4j1
ROWS
 N 	 OBJROW
 L	 R0 
COLUMNS
 C0	 OBJROW 	-88	 R0 	3	
 C1	 OBJROW 	-44	 R0 	9	
 C2	 OBJROW 	-26	 R0 	10	
 C3	 OBJROW 	-91	 R0 	10	
 C4	 OBJROW 	-27	 R0 	15	
 C5	 OBJROW 	-56	 R0 	19	
 C6	 OBJROW 	-95	 R0 	23	
 C7	 OBJROW 	-22	 R0 	24	
 C8	 OBJROW 	-13	 R0 	28	
 C9	 OBJROW 	-69	 R0 	33	
 C10	 OBJROW 	-80	 R0 	36	
 C11	 OBJROW 	-1	 R0 	37	
 C12	 OBJROW 	-73	 R0 	38	
 C13	 OBJROW 	-99	 R0 	38	
 C14	 OBJROW 	-48	 R0 	39	
 C15	 OBJROW 	-26	 R0 	41	
 C16	 OBJROW 	-75	 R0 	42	
 C17	 OBJROW 	-29	 R0 	46	
 C18	 OBJROW 	-80	 R0 	46	
 C19	 OBJROW 	-87	 R0 	63	
 C20	 OBJROW 	-24	 R0 	63	
 C21	 OBJROW 	-9	 R0 	64	
 C22	 OBJROW 	-5	 R0 	66	
 C23	 OBJROW 	-83	 R0 	66	
 C24	 OBJROW 	-22	 R0 	77	
 C25	 OBJROW 	-92	 R0 	78	
 C26	 OBJROW 	-19	 R0 	84	
 C27	 OBJROW 	-17	 R0 	84	
 C28	 OBJROW 	-70	 R0 	91	
 C29	 OBJROW 	-1	 R0 	96	
RHS
 RHS	 R0 	 623	
BOUNDS
 BV BOUND	C0	 1	
 BV BOUND	C1	 1	
 BV BOUND	C2	 1	
 BV BOUND	C3	 1	
 BV BOUND	C4	 1	
 BV BOUND	C5	 1	
 BV BOUND	C6	 1	
 BV BOUND	C7	 1	
 BV BOUND	C8	 1	
 BV BOUND	C9	 1	
 BV BOUND	C10	 1	
 BV BOUND	C11	 1	
 BV BOUND	C12	 1	
 BV BOUND	C13	 1	
 BV BOUND	C14	 1	
 BV BOUND	C15	 1	
 BV BOUND	C16	 1	
 BV BOUND	C17	 1	
 BV BOUND	C18	 1	
 BV BOUND	C19	 1	
 BV BOUND	C20	 1	
 BV BOUND	C21	 1	
 BV BOUND	C22	 1	
 BV BOUND	C23	 1	
 BV BOUND	C24	 1	
 BV BOUND	C25	 1	
 BV BOUND	C26	 1	
 BV BOUND	C27	 1	
 BV BOUND	C28	 1	
 BV BOUND	C29	 1	
ENDATA
