NAME	DNeg_n25k1j6
ROWS
 N 	 OBJROW
 L	 R0 
COLUMNS
 C0	 OBJROW 	-20	 R0 	4	
 C1	 OBJROW 	-20	 R0 	5	
 C2	 OBJROW 	-98	 R0 	9	
 C3	 OBJROW 	-66	 R0 	12	
 C4	 OBJROW 	-65	 R0 	14	
 C5	 OBJROW 	-50	 R0 	16	
 C6	 OBJROW 	-2	 R0 	19	
 C7	 OBJROW 	-16	 R0 	24	
 C8	 OBJROW 	-91	 R0 	26	
 C9	 OBJROW 	-38	 R0 	26	
 C10	 OBJROW 	-45	 R0 	26	
 C11	 OBJROW 	-5	 R0 	38	
 C12	 OBJROW 	-91	 R0 	38	
 C13	 OBJROW 	-45	 R0 	42	
 C14	 OBJROW 	-28	 R0 	44	
 C15	 OBJROW 	-56	 R0 	44	
 C16	 OBJROW 	-23	 R0 	52	
 C17	 OBJROW 	-33	 R0 	53	
 C18	 OBJROW 	-29	 R0 	55	
 C19	 OBJROW 	-21	 R0 	70	
 C20	 OBJROW 	-64	 R0 	72	
 C21	 OBJROW 	-4	 R0 	74	
 C22	 OBJROW 	-60	 R0 	91	
 C23	 OBJROW 	-89	 R0 	92	
 C24	 OBJROW 	-55	 R0 	97	
RHS
 RHS	 R0 	 190	
BOUNDS
 BV BOUND	C0	 1	
 BV BOUND	C1	 1	
 BV BOUND	C2	 1	
 BV BOUND	C3	 1	
 BV BOUND	C4	 1	
 BV BOUND	C5	 1	
 BV BOUND	C6	 1	
 BV BOUND	C7	 1	
 BV BOUND	C8	 1	
 BV BOUND	C9	 1	
 BV BOUND	C10	 1	
 BV BOUND	C11	 1	
 BV BOUND	C12	 1	
 BV BOUND	C13	 1	
 BV BOUND	C14	 1	
 BV BOUND	C15	 1	
 BV BOUND	C16	 1	
 BV BOUND	C17	 1	
 BV BOUND	C18	 1	
 BV BOUND	C19	 1	
 BV BOUND	C20	 1	
 BV BOUND	C21	 1	
 BV BOUND	C22	 1	
 BV BOUND	C23	 1	
 BV BOUND	C24	 1	
ENDATA
