NAME	DNeg_n25k1j7
ROWS
 N 	 OBJROW
 L	 R0 
COLUMNS
 C0	 OBJROW 	-2	 R0 	8	
 C1	 OBJROW 	-53	 R0 	9	
 C2	 OBJROW 	-23	 R0 	11	
 C3	 OBJROW 	-64	 R0 	16	
 C4	 OBJROW 	-94	 R0 	18	
 C5	 OBJROW 	-62	 R0 	21	
 C6	 OBJROW 	-84	 R0 	29	
 C7	 OBJROW 	-98	 R0 	30	
 C8	 OBJROW 	-34	 R0 	32	
 C9	 OBJROW 	-94	 R0 	33	
 C10	 OBJROW 	-8	 R0 	42	
 C11	 OBJROW 	-17	 R0 	43	
 C12	 OBJROW 	-88	 R0 	47	
 C13	 OBJROW 	-2	 R0 	49	
 C14	 OBJROW 	-98	 R0 	54	
 C15	 OBJROW 	-56	 R0 	55	
 C16	 OBJROW 	-28	 R0 	56	
 C17	 OBJROW 	-28	 R0 	57	
 C18	 OBJROW 	-83	 R0 	63	
 C19	 OBJROW 	-11	 R0 	64	
 C20	 OBJROW 	-12	 R0 	72	
 C21	 OBJROW 	-37	 R0 	78	
 C22	 OBJROW 	-43	 R0 	80	
 C23	 OBJROW 	-98	 R0 	86	
 C24	 OBJROW 	-88	 R0 	95	
RHS
 RHS	 R0 	 209	
BOUNDS
 BV BOUND	C0	 1	
 BV BOUND	C1	 1	
 BV BOUND	C2	 1	
 BV BOUND	C3	 1	
 BV BOUND	C4	 1	
 BV BOUND	C5	 1	
 BV BOUND	C6	 1	
 BV BOUND	C7	 1	
 BV BOUND	C8	 1	
 BV BOUND	C9	 1	
 BV BOUND	C10	 1	
 BV BOUND	C11	 1	
 BV BOUND	C12	 1	
 BV BOUND	C13	 1	
 BV BOUND	C14	 1	
 BV BOUND	C15	 1	
 BV BOUND	C16	 1	
 BV BOUND	C17	 1	
 BV BOUND	C18	 1	
 BV BOUND	C19	 1	
 BV BOUND	C20	 1	
 BV BOUND	C21	 1	
 BV BOUND	C22	 1	
 BV BOUND	C23	 1	
 BV BOUND	C24	 1	
ENDATA
