NAME	DNeg_n20k2j5
ROWS
 N 	 OBJROW
 L	 R0 
COLUMNS
 C0	 OBJROW 	-28	 R0 	8	
 C1	 OBJROW 	-56	 R0 	9	
 C2	 OBJROW 	-32	 R0 	12	
 C3	 OBJROW 	-75	 R0 	12	
 C4	 OBJROW 	-20	 R0 	14	
 C5	 OBJROW 	-29	 R0 	15	
 C6	 OBJROW 	-87	 R0 	20	
 C7	 OBJROW 	-86	 R0 	20	
 C8	 OBJROW 	-32	 R0 	21	
 C9	 OBJROW 	-53	 R0 	23	
 C10	 OBJROW 	-76	 R0 	27	
 C11	 OBJROW 	-10	 R0 	36	
 C12	 OBJROW 	-88	 R0 	47	
 C13	 OBJROW 	-65	 R0 	55	
 C14	 OBJROW 	-12	 R0 	74	
 C15	 OBJROW 	-15	 R0 	74	
 C16	 OBJROW 	-69	 R0 	88	
 C17	 OBJROW 	-58	 R0 	88	
 C18	 OBJROW 	-63	 R0 	94	
 C19	 OBJROW 	-58	 R0 	99	
RHS
 RHS	 R0 	 228	
BOUNDS
 BV BOUND	C0	 1	
 BV BOUND	C1	 1	
 BV BOUND	C2	 1	
 BV BOUND	C3	 1	
 BV BOUND	C4	 1	
 BV BOUND	C5	 1	
 BV BOUND	C6	 1	
 BV BOUND	C7	 1	
 BV BOUND	C8	 1	
 BV BOUND	C9	 1	
 BV BOUND	C10	 1	
 BV BOUND	C11	 1	
 BV BOUND	C12	 1	
 BV BOUND	C13	 1	
 BV BOUND	C14	 1	
 BV BOUND	C15	 1	
 BV BOUND	C16	 1	
 BV BOUND	C17	 1	
 BV BOUND	C18	 1	
 BV BOUND	C19	 1	
ENDATA
