NAME	DNeg_n30k8j2
ROWS
 N 	 OBJROW
 L	 R0 
COLUMNS
 C0	 OBJROW 	-88	 R0 	1	
 C1	 OBJROW 	-3	 R0 	4	
 C2	 OBJROW 	-69	 R0 	5	
 C3	 OBJROW 	-83	 R0 	9	
 C4	 OBJROW 	-94	 R0 	10	
 C5	 OBJROW 	-79	 R0 	10	
 C6	 OBJROW 	-1	 R0 	13	
 C7	 OBJROW 	-39	 R0 	19	
 C8	 OBJROW 	-20	 R0 	20	
 C9	 OBJROW 	-76	 R0 	27	
 C10	 OBJROW 	-61	 R0 	50	
 C11	 OBJROW 	-33	 R0 	52	
 C12	 OBJROW 	-6	 R0 	52	
 C13	 OBJROW 	-68	 R0 	53	
 C14	 OBJROW 	-98	 R0 	64	
 C15	 OBJROW 	-12	 R0 	66	
 C16	 OBJROW 	-13	 R0 	67	
 C17	 OBJROW 	-31	 R0 	69	
 C18	 OBJROW 	-42	 R0 	72	
 C19	 OBJROW 	-80	 R0 	75	
 C20	 OBJROW 	-82	 R0 	76	
 C21	 OBJROW 	-98	 R0 	82	
 C22	 OBJROW 	-51	 R0 	82	
 C23	 OBJROW 	-19	 R0 	83	
 C24	 OBJROW 	-63	 R0 	89	
 C25	 OBJROW 	-6	 R0 	89	
 C26	 OBJROW 	-26	 R0 	92	
 C27	 OBJROW 	-18	 R0 	95	
 C28	 OBJROW 	-56	 R0 	98	
 C29	 OBJROW 	-44	 R0 	99	
RHS
 RHS	 R0 	 1328	
BOUNDS
 BV BOUND	C0	 1	
 BV BOUND	C1	 1	
 BV BOUND	C2	 1	
 BV BOUND	C3	 1	
 BV BOUND	C4	 1	
 BV BOUND	C5	 1	
 BV BOUND	C6	 1	
 BV BOUND	C7	 1	
 BV BOUND	C8	 1	
 BV BOUND	C9	 1	
 BV BOUND	C10	 1	
 BV BOUND	C11	 1	
 BV BOUND	C12	 1	
 BV BOUND	C13	 1	
 BV BOUND	C14	 1	
 BV BOUND	C15	 1	
 BV BOUND	C16	 1	
 BV BOUND	C17	 1	
 BV BOUND	C18	 1	
 BV BOUND	C19	 1	
 BV BOUND	C20	 1	
 BV BOUND	C21	 1	
 BV BOUND	C22	 1	
 BV BOUND	C23	 1	
 BV BOUND	C24	 1	
 BV BOUND	C25	 1	
 BV BOUND	C26	 1	
 BV BOUND	C27	 1	
 BV BOUND	C28	 1	
 BV BOUND	C29	 1	
ENDATA
