NAME	DNeg_n20k7j0
ROWS
 N 	 OBJROW
 L	 R0 
COLUMNS
 C0	 OBJROW 	-57	 R0 	1	
 C1	 OBJROW 	-4	 R0 	14	
 C2	 OBJROW 	-67	 R0 	16	
 C3	 OBJROW 	-74	 R0 	19	
 C4	 OBJROW 	-16	 R0 	22	
 C5	 OBJROW 	-95	 R0 	23	
 C6	 OBJROW 	-37	 R0 	23	
 C7	 OBJROW 	-43	 R0 	38	
 C8	 OBJROW 	-63	 R0 	40	
 C9	 OBJROW 	-91	 R0 	43	
 C10	 OBJROW 	-78	 R0 	43	
 C11	 OBJROW 	-46	 R0 	47	
 C12	 OBJROW 	-53	 R0 	53	
 C13	 OBJROW 	-40	 R0 	53	
 C14	 OBJROW 	-50	 R0 	56	
 C15	 OBJROW 	-91	 R0 	62	
 C16	 OBJROW 	-37	 R0 	68	
 C17	 OBJROW 	-40	 R0 	74	
 C18	 OBJROW 	-29	 R0 	76	
 C19	 OBJROW 	-35	 R0 	95	
RHS
 RHS	 R0 	 630	
BOUNDS
 BV BOUND	C0	 1	
 BV BOUND	C1	 1	
 BV BOUND	C2	 1	
 BV BOUND	C3	 1	
 BV BOUND	C4	 1	
 BV BOUND	C5	 1	
 BV BOUND	C6	 1	
 BV BOUND	C7	 1	
 BV BOUND	C8	 1	
 BV BOUND	C9	 1	
 BV BOUND	C10	 1	
 BV BOUND	C11	 1	
 BV BOUND	C12	 1	
 BV BOUND	C13	 1	
 BV BOUND	C14	 1	
 BV BOUND	C15	 1	
 BV BOUND	C16	 1	
 BV BOUND	C17	 1	
 BV BOUND	C18	 1	
 BV BOUND	C19	 1	
ENDATA
