NAME	DNeg_n25k5j0
ROWS
 N 	 OBJROW
 L	 R0 
COLUMNS
 C0	 OBJROW 	-75	 R0 	4	
 C1	 OBJROW 	-99	 R0 	5	
 C2	 OBJROW 	-65	 R0 	13	
 C3	 OBJROW 	-44	 R0 	24	
 C4	 OBJROW 	-21	 R0 	38	
 C5	 OBJROW 	-47	 R0 	41	
 C6	 OBJROW 	-91	 R0 	45	
 C7	 OBJROW 	-41	 R0 	45	
 C8	 OBJROW 	-21	 R0 	50	
 C9	 OBJROW 	-96	 R0 	56	
 C10	 OBJROW 	-32	 R0 	59	
 C11	 OBJROW 	-74	 R0 	60	
 C12	 OBJROW 	-73	 R0 	60	
 C13	 OBJROW 	-2	 R0 	61	
 C14	 OBJROW 	-12	 R0 	66	
 C15	 OBJROW 	-77	 R0 	66	
 C16	 OBJROW 	-74	 R0 	66	
 C17	 OBJROW 	-79	 R0 	66	
 C18	 OBJROW 	-43	 R0 	72	
 C19	 OBJROW 	-62	 R0 	76	
 C20	 OBJROW 	-35	 R0 	77	
 C21	 OBJROW 	-83	 R0 	77	
 C22	 OBJROW 	-22	 R0 	84	
 C23	 OBJROW 	-32	 R0 	91	
 C24	 OBJROW 	-14	 R0 	93	
RHS
 RHS	 R0 	 761	
BOUNDS
 BV BOUND	C0	 1	
 BV BOUND	C1	 1	
 BV BOUND	C2	 1	
 BV BOUND	C3	 1	
 BV BOUND	C4	 1	
 BV BOUND	C5	 1	
 BV BOUND	C6	 1	
 BV BOUND	C7	 1	
 BV BOUND	C8	 1	
 BV BOUND	C9	 1	
 BV BOUND	C10	 1	
 BV BOUND	C11	 1	
 BV BOUND	C12	 1	
 BV BOUND	C13	 1	
 BV BOUND	C14	 1	
 BV BOUND	C15	 1	
 BV BOUND	C16	 1	
 BV BOUND	C17	 1	
 BV BOUND	C18	 1	
 BV BOUND	C19	 1	
 BV BOUND	C20	 1	
 BV BOUND	C21	 1	
 BV BOUND	C22	 1	
 BV BOUND	C23	 1	
 BV BOUND	C24	 1	
ENDATA
