NAME	DNeg_n15k3j3
ROWS
 N 	 OBJROW
 L	 R0 
COLUMNS
 C0	 OBJROW 	-17	 R0 	23	
 C1	 OBJROW 	-55	 R0 	24	
 C2	 OBJROW 	-54	 R0 	27	
 C3	 OBJROW 	-72	 R0 	28	
 C4	 OBJROW 	-5	 R0 	36	
 C5	 OBJROW 	-40	 R0 	39	
 C6	 OBJROW 	-93	 R0 	41	
 C7	 OBJROW 	-51	 R0 	43	
 C8	 OBJROW 	-65	 R0 	43	
 C9	 OBJROW 	-12	 R0 	44	
 C10	 OBJROW 	-86	 R0 	61	
 C11	 OBJROW 	-89	 R0 	71	
 C12	 OBJROW 	-25	 R0 	78	
 C13	 OBJROW 	-88	 R0 	82	
 C14	 OBJROW 	-24	 R0 	87	
RHS
 RHS	 R0 	 265	
BOUNDS
 BV BOUND	C0	 1	
 BV BOUND	C1	 1	
 BV BOUND	C2	 1	
 BV BOUND	C3	 1	
 BV BOUND	C4	 1	
 BV BOUND	C5	 1	
 BV BOUND	C6	 1	
 BV BOUND	C7	 1	
 BV BOUND	C8	 1	
 BV BOUND	C9	 1	
 BV BOUND	C10	 1	
 BV BOUND	C11	 1	
 BV BOUND	C12	 1	
 BV BOUND	C13	 1	
 BV BOUND	C14	 1	
ENDATA
