NAME	DNeg_n25k5j6
ROWS
 N 	 OBJROW
 L	 R0 
COLUMNS
 C0	 OBJROW 	-79	 R0 	1	
 C1	 OBJROW 	-67	 R0 	3	
 C2	 OBJROW 	-48	 R0 	3	
 C3	 OBJROW 	-25	 R0 	5	
 C4	 OBJROW 	-50	 R0 	6	
 C5	 OBJROW 	-99	 R0 	10	
 C6	 OBJROW 	-22	 R0 	11	
 C7	 OBJROW 	-49	 R0 	15	
 C8	 OBJROW 	-75	 R0 	18	
 C9	 OBJROW 	-43	 R0 	30	
 C10	 OBJROW 	-76	 R0 	35	
 C11	 OBJROW 	-77	 R0 	35	
 C12	 OBJROW 	-90	 R0 	40	
 C13	 OBJROW 	-29	 R0 	44	
 C14	 OBJROW 	-19	 R0 	48	
 C15	 OBJROW 	-72	 R0 	51	
 C16	 OBJROW 	-36	 R0 	55	
 C17	 OBJROW 	-91	 R0 	57	
 C18	 OBJROW 	-61	 R0 	57	
 C19	 OBJROW 	-19	 R0 	60	
 C20	 OBJROW 	-76	 R0 	62	
 C21	 OBJROW 	-74	 R0 	85	
 C22	 OBJROW 	-8	 R0 	92	
 C23	 OBJROW 	-4	 R0 	95	
 C24	 OBJROW 	-26	 R0 	96	
RHS
 RHS	 R0 	 554	
BOUNDS
 BV BOUND	C0	 1	
 BV BOUND	C1	 1	
 BV BOUND	C2	 1	
 BV BOUND	C3	 1	
 BV BOUND	C4	 1	
 BV BOUND	C5	 1	
 BV BOUND	C6	 1	
 BV BOUND	C7	 1	
 BV BOUND	C8	 1	
 BV BOUND	C9	 1	
 BV BOUND	C10	 1	
 BV BOUND	C11	 1	
 BV BOUND	C12	 1	
 BV BOUND	C13	 1	
 BV BOUND	C14	 1	
 BV BOUND	C15	 1	
 BV BOUND	C16	 1	
 BV BOUND	C17	 1	
 BV BOUND	C18	 1	
 BV BOUND	C19	 1	
 BV BOUND	C20	 1	
 BV BOUND	C21	 1	
 BV BOUND	C22	 1	
 BV BOUND	C23	 1	
 BV BOUND	C24	 1	
ENDATA
