NAME	DNeg_n15k6j7
ROWS
 N 	 OBJROW
 L	 R0 
COLUMNS
 C0	 OBJROW 	-96	 R0 	2	
 C1	 OBJROW 	-58	 R0 	5	
 C2	 OBJROW 	-16	 R0 	5	
 C3	 OBJROW 	-63	 R0 	17	
 C4	 OBJROW 	-84	 R0 	20	
 C5	 OBJROW 	-85	 R0 	24	
 C6	 OBJROW 	-88	 R0 	37	
 C7	 OBJROW 	-3	 R0 	40	
 C8	 OBJROW 	-69	 R0 	40	
 C9	 OBJROW 	-34	 R0 	41	
 C10	 OBJROW 	-97	 R0 	42	
 C11	 OBJROW 	-49	 R0 	60	
 C12	 OBJROW 	-5	 R0 	67	
 C13	 OBJROW 	-57	 R0 	85	
 C14	 OBJROW 	-22	 R0 	89	
RHS
 RHS	 R0 	 366	
BOUNDS
 BV BOUND	C0	 1	
 BV BOUND	C1	 1	
 BV BOUND	C2	 1	
 BV BOUND	C3	 1	
 BV BOUND	C4	 1	
 BV BOUND	C5	 1	
 BV BOUND	C6	 1	
 BV BOUND	C7	 1	
 BV BOUND	C8	 1	
 BV BOUND	C9	 1	
 BV BOUND	C10	 1	
 BV BOUND	C11	 1	
 BV BOUND	C12	 1	
 BV BOUND	C13	 1	
 BV BOUND	C14	 1	
ENDATA
