NAME	DNeg_n30k3j5
ROWS
 N 	 OBJROW
 L	 R0 
COLUMNS
 C0	 OBJROW 	-43	 R0 	4	
 C1	 OBJROW 	-91	 R0 	9	
 C2	 OBJROW 	-19	 R0 	13	
 C3	 OBJROW 	-87	 R0 	14	
 C4	 OBJROW 	-24	 R0 	19	
 C5	 OBJROW 	-50	 R0 	21	
 C6	 OBJROW 	-72	 R0 	27	
 C7	 OBJROW 	-56	 R0 	27	
 C8	 OBJROW 	-67	 R0 	29	
 C9	 OBJROW 	-37	 R0 	37	
 C10	 OBJROW 	-54	 R0 	40	
 C11	 OBJROW 	-88	 R0 	41	
 C12	 OBJROW 	-15	 R0 	46	
 C13	 OBJROW 	-19	 R0 	59	
 C14	 OBJROW 	-21	 R0 	60	
 C15	 OBJROW 	-17	 R0 	61	
 C16	 OBJROW 	-20	 R0 	64	
 C17	 OBJROW 	-89	 R0 	65	
 C18	 OBJROW 	-6	 R0 	69	
 C19	 OBJROW 	-73	 R0 	70	
 C20	 OBJROW 	-42	 R0 	73	
 C21	 OBJROW 	-82	 R0 	74	
 C22	 OBJROW 	-81	 R0 	76	
 C23	 OBJROW 	-31	 R0 	82	
 C24	 OBJROW 	-56	 R0 	87	
 C25	 OBJROW 	-53	 R0 	91	
 C26	 OBJROW 	-11	 R0 	93	
 C27	 OBJROW 	-8	 R0 	96	
 C28	 OBJROW 	-76	 R0 	96	
 C29	 OBJROW 	-11	 R0 	98	
RHS
 RHS	 R0 	 597	
BOUNDS
 BV BOUND	C0	 1	
 BV BOUND	C1	 1	
 BV BOUND	C2	 1	
 BV BOUND	C3	 1	
 BV BOUND	C4	 1	
 BV BOUND	C5	 1	
 BV BOUND	C6	 1	
 BV BOUND	C7	 1	
 BV BOUND	C8	 1	
 BV BOUND	C9	 1	
 BV BOUND	C10	 1	
 BV BOUND	C11	 1	
 BV BOUND	C12	 1	
 BV BOUND	C13	 1	
 BV BOUND	C14	 1	
 BV BOUND	C15	 1	
 BV BOUND	C16	 1	
 BV BOUND	C17	 1	
 BV BOUND	C18	 1	
 BV BOUND	C19	 1	
 BV BOUND	C20	 1	
 BV BOUND	C21	 1	
 BV BOUND	C22	 1	
 BV BOUND	C23	 1	
 BV BOUND	C24	 1	
 BV BOUND	C25	 1	
 BV BOUND	C26	 1	
 BV BOUND	C27	 1	
 BV BOUND	C28	 1	
 BV BOUND	C29	 1	
ENDATA
