NAME	DNeg_n15k7j1
ROWS
 N 	 OBJROW
 L	 R0 
COLUMNS
 C0	 OBJROW 	-9	 R0 	2	
 C1	 OBJROW 	-37	 R0 	14	
 C2	 OBJROW 	-77	 R0 	14	
 C3	 OBJROW 	-33	 R0 	18	
 C4	 OBJROW 	-50	 R0 	19	
 C5	 OBJROW 	-70	 R0 	21	
 C6	 OBJROW 	-51	 R0 	41	
 C7	 OBJROW 	-62	 R0 	43	
 C8	 OBJROW 	-36	 R0 	49	
 C9	 OBJROW 	-77	 R0 	50	
 C10	 OBJROW 	-45	 R0 	53	
 C11	 OBJROW 	-67	 R0 	55	
 C12	 OBJROW 	-75	 R0 	64	
 C13	 OBJROW 	-81	 R0 	78	
 C14	 OBJROW 	-48	 R0 	88	
RHS
 RHS	 R0 	 443	
BOUNDS
 BV BOUND	C0	 1	
 BV BOUND	C1	 1	
 BV BOUND	C2	 1	
 BV BOUND	C3	 1	
 BV BOUND	C4	 1	
 BV BOUND	C5	 1	
 BV BOUND	C6	 1	
 BV BOUND	C7	 1	
 BV BOUND	C8	 1	
 BV BOUND	C9	 1	
 BV BOUND	C10	 1	
 BV BOUND	C11	 1	
 BV BOUND	C12	 1	
 BV BOUND	C13	 1	
 BV BOUND	C14	 1	
ENDATA
