NAME	DNeg_n30k4j0
ROWS
 N 	 OBJROW
 L	 R0 
COLUMNS
 C0	 OBJROW 	-88	 R0 	2	
 C1	 OBJROW 	-24	 R0 	3	
 C2	 OBJROW 	-93	 R0 	5	
 C3	 OBJROW 	-11	 R0 	10	
 C4	 OBJROW 	-57	 R0 	12	
 C5	 OBJROW 	-62	 R0 	17	
 C6	 OBJROW 	-74	 R0 	17	
 C7	 OBJROW 	-46	 R0 	22	
 C8	 OBJROW 	-29	 R0 	24	
 C9	 OBJROW 	-31	 R0 	35	
 C10	 OBJROW 	-99	 R0 	38	
 C11	 OBJROW 	-14	 R0 	38	
 C12	 OBJROW 	-24	 R0 	38	
 C13	 OBJROW 	-8	 R0 	41	
 C14	 OBJROW 	-19	 R0 	42	
 C15	 OBJROW 	-36	 R0 	54	
 C16	 OBJROW 	-50	 R0 	57	
 C17	 OBJROW 	-92	 R0 	57	
 C18	 OBJROW 	-73	 R0 	60	
 C19	 OBJROW 	-15	 R0 	69	
 C20	 OBJROW 	-99	 R0 	73	
 C21	 OBJROW 	-63	 R0 	74	
 C22	 OBJROW 	-76	 R0 	75	
 C23	 OBJROW 	-48	 R0 	77	
 C24	 OBJROW 	-83	 R0 	81	
 C25	 OBJROW 	-63	 R0 	83	
 C26	 OBJROW 	-73	 R0 	84	
 C27	 OBJROW 	-46	 R0 	89	
 C28	 OBJROW 	-80	 R0 	93	
 C29	 OBJROW 	-18	 R0 	99	
RHS
 RHS	 R0 	 668	
BOUNDS
 BV BOUND	C0	 1	
 BV BOUND	C1	 1	
 BV BOUND	C2	 1	
 BV BOUND	C3	 1	
 BV BOUND	C4	 1	
 BV BOUND	C5	 1	
 BV BOUND	C6	 1	
 BV BOUND	C7	 1	
 BV BOUND	C8	 1	
 BV BOUND	C9	 1	
 BV BOUND	C10	 1	
 BV BOUND	C11	 1	
 BV BOUND	C12	 1	
 BV BOUND	C13	 1	
 BV BOUND	C14	 1	
 BV BOUND	C15	 1	
 BV BOUND	C16	 1	
 BV BOUND	C17	 1	
 BV BOUND	C18	 1	
 BV BOUND	C19	 1	
 BV BOUND	C20	 1	
 BV BOUND	C21	 1	
 BV BOUND	C22	 1	
 BV BOUND	C23	 1	
 BV BOUND	C24	 1	
 BV BOUND	C25	 1	
 BV BOUND	C26	 1	
 BV BOUND	C27	 1	
 BV BOUND	C28	 1	
 BV BOUND	C29	 1	
ENDATA
