NAME	DNeg_n30k2j4
ROWS
 N 	 OBJROW
 L	 R0 
COLUMNS
 C0	 OBJROW 	-6	 R0 	7	
 C1	 OBJROW 	-33	 R0 	10	
 C2	 OBJROW 	-87	 R0 	12	
 C3	 OBJROW 	-91	 R0 	16	
 C4	 OBJROW 	-38	 R0 	21	
 C5	 OBJROW 	-69	 R0 	23	
 C6	 OBJROW 	-47	 R0 	23	
 C7	 OBJROW 	-95	 R0 	26	
 C8	 OBJROW 	-22	 R0 	27	
 C9	 OBJROW 	-85	 R0 	27	
 C10	 OBJROW 	-57	 R0 	32	
 C11	 OBJROW 	-14	 R0 	37	
 C12	 OBJROW 	-98	 R0 	39	
 C13	 OBJROW 	-17	 R0 	43	
 C14	 OBJROW 	-17	 R0 	47	
 C15	 OBJROW 	-81	 R0 	51	
 C16	 OBJROW 	-59	 R0 	53	
 C17	 OBJROW 	-57	 R0 	57	
 C18	 OBJROW 	-92	 R0 	61	
 C19	 OBJROW 	-89	 R0 	63	
 C20	 OBJROW 	-56	 R0 	66	
 C21	 OBJROW 	-71	 R0 	67	
 C22	 OBJROW 	-32	 R0 	77	
 C23	 OBJROW 	-12	 R0 	78	
 C24	 OBJROW 	-24	 R0 	78	
 C25	 OBJROW 	-3	 R0 	86	
 C26	 OBJROW 	-57	 R0 	93	
 C27	 OBJROW 	-57	 R0 	95	
 C28	 OBJROW 	-72	 R0 	96	
 C29	 OBJROW 	-33	 R0 	98	
RHS
 RHS	 R0 	 412	
BOUNDS
 BV BOUND	C0	 1	
 BV BOUND	C1	 1	
 BV BOUND	C2	 1	
 BV BOUND	C3	 1	
 BV BOUND	C4	 1	
 BV BOUND	C5	 1	
 BV BOUND	C6	 1	
 BV BOUND	C7	 1	
 BV BOUND	C8	 1	
 BV BOUND	C9	 1	
 BV BOUND	C10	 1	
 BV BOUND	C11	 1	
 BV BOUND	C12	 1	
 BV BOUND	C13	 1	
 BV BOUND	C14	 1	
 BV BOUND	C15	 1	
 BV BOUND	C16	 1	
 BV BOUND	C17	 1	
 BV BOUND	C18	 1	
 BV BOUND	C19	 1	
 BV BOUND	C20	 1	
 BV BOUND	C21	 1	
 BV BOUND	C22	 1	
 BV BOUND	C23	 1	
 BV BOUND	C24	 1	
 BV BOUND	C25	 1	
 BV BOUND	C26	 1	
 BV BOUND	C27	 1	
 BV BOUND	C28	 1	
 BV BOUND	C29	 1	
ENDATA
