NAME	DNeg_n30k6j4
ROWS
 N 	 OBJROW
 L	 R0 
COLUMNS
 C0	 OBJROW 	-19	 R0 	2	
 C1	 OBJROW 	-70	 R0 	8	
 C2	 OBJROW 	-25	 R0 	9	
 C3	 OBJROW 	-98	 R0 	10	
 C4	 OBJROW 	-59	 R0 	12	
 C5	 OBJROW 	-15	 R0 	14	
 C6	 OBJROW 	-45	 R0 	14	
 C7	 OBJROW 	-25	 R0 	15	
 C8	 OBJROW 	-58	 R0 	16	
 C9	 OBJROW 	-36	 R0 	18	
 C10	 OBJROW 	-68	 R0 	26	
 C11	 OBJROW 	-74	 R0 	29	
 C12	 OBJROW 	-97	 R0 	31	
 C13	 OBJROW 	-69	 R0 	35	
 C14	 OBJROW 	-90	 R0 	38	
 C15	 OBJROW 	-37	 R0 	40	
 C16	 OBJROW 	-25	 R0 	41	
 C17	 OBJROW 	-87	 R0 	46	
 C18	 OBJROW 	-12	 R0 	47	
 C19	 OBJROW 	-6	 R0 	66	
 C20	 OBJROW 	-77	 R0 	66	
 C21	 OBJROW 	-48	 R0 	69	
 C22	 OBJROW 	-88	 R0 	71	
 C23	 OBJROW 	-15	 R0 	76	
 C24	 OBJROW 	-45	 R0 	84	
 C25	 OBJROW 	-38	 R0 	84	
 C26	 OBJROW 	-18	 R0 	88	
 C27	 OBJROW 	-21	 R0 	89	
 C28	 OBJROW 	-34	 R0 	91	
 C29	 OBJROW 	-95	 R0 	92	
RHS
 RHS	 R0 	 845	
BOUNDS
 BV BOUND	C0	 1	
 BV BOUND	C1	 1	
 BV BOUND	C2	 1	
 BV BOUND	C3	 1	
 BV BOUND	C4	 1	
 BV BOUND	C5	 1	
 BV BOUND	C6	 1	
 BV BOUND	C7	 1	
 BV BOUND	C8	 1	
 BV BOUND	C9	 1	
 BV BOUND	C10	 1	
 BV BOUND	C11	 1	
 BV BOUND	C12	 1	
 BV BOUND	C13	 1	
 BV BOUND	C14	 1	
 BV BOUND	C15	 1	
 BV BOUND	C16	 1	
 BV BOUND	C17	 1	
 BV BOUND	C18	 1	
 BV BOUND	C19	 1	
 BV BOUND	C20	 1	
 BV BOUND	C21	 1	
 BV BOUND	C22	 1	
 BV BOUND	C23	 1	
 BV BOUND	C24	 1	
 BV BOUND	C25	 1	
 BV BOUND	C26	 1	
 BV BOUND	C27	 1	
 BV BOUND	C28	 1	
 BV BOUND	C29	 1	
ENDATA
