NAME	DNeg_n25k4j1
ROWS
 N 	 OBJROW
 L	 R0 
COLUMNS
 C0	 OBJROW 	-10	 R0 	1	
 C1	 OBJROW 	-77	 R0 	1	
 C2	 OBJROW 	-98	 R0 	5	
 C3	 OBJROW 	-77	 R0 	5	
 C4	 OBJROW 	-14	 R0 	15	
 C5	 OBJROW 	-56	 R0 	16	
 C6	 OBJROW 	-9	 R0 	16	
 C7	 OBJROW 	-79	 R0 	20	
 C8	 OBJROW 	-15	 R0 	22	
 C9	 OBJROW 	-54	 R0 	38	
 C10	 OBJROW 	-59	 R0 	38	
 C11	 OBJROW 	-29	 R0 	44	
 C12	 OBJROW 	-92	 R0 	45	
 C13	 OBJROW 	-2	 R0 	46	
 C14	 OBJROW 	-25	 R0 	48	
 C15	 OBJROW 	-7	 R0 	51	
 C16	 OBJROW 	-76	 R0 	59	
 C17	 OBJROW 	-60	 R0 	65	
 C18	 OBJROW 	-96	 R0 	67	
 C19	 OBJROW 	-14	 R0 	68	
 C20	 OBJROW 	-49	 R0 	70	
 C21	 OBJROW 	-69	 R0 	77	
 C22	 OBJROW 	-15	 R0 	80	
 C23	 OBJROW 	-22	 R0 	83	
 C24	 OBJROW 	-14	 R0 	96	
RHS
 RHS	 R0 	 490	
BOUNDS
 BV BOUND	C0	 1	
 BV BOUND	C1	 1	
 BV BOUND	C2	 1	
 BV BOUND	C3	 1	
 BV BOUND	C4	 1	
 BV BOUND	C5	 1	
 BV BOUND	C6	 1	
 BV BOUND	C7	 1	
 BV BOUND	C8	 1	
 BV BOUND	C9	 1	
 BV BOUND	C10	 1	
 BV BOUND	C11	 1	
 BV BOUND	C12	 1	
 BV BOUND	C13	 1	
 BV BOUND	C14	 1	
 BV BOUND	C15	 1	
 BV BOUND	C16	 1	
 BV BOUND	C17	 1	
 BV BOUND	C18	 1	
 BV BOUND	C19	 1	
 BV BOUND	C20	 1	
 BV BOUND	C21	 1	
 BV BOUND	C22	 1	
 BV BOUND	C23	 1	
 BV BOUND	C24	 1	
ENDATA
