NAME	DNeg_n30k7j1
ROWS
 N 	 OBJROW
 L	 R0 
COLUMNS
 C0	 OBJROW 	-97	 R0 	8	
 C1	 OBJROW 	-85	 R0 	9	
 C2	 OBJROW 	-96	 R0 	17	
 C3	 OBJROW 	-18	 R0 	19	
 C4	 OBJROW 	-86	 R0 	21	
 C5	 OBJROW 	-28	 R0 	23	
 C6	 OBJROW 	-80	 R0 	26	
 C7	 OBJROW 	-38	 R0 	27	
 C8	 OBJROW 	-36	 R0 	30	
 C9	 OBJROW 	-44	 R0 	30	
 C10	 OBJROW 	-32	 R0 	30	
 C11	 OBJROW 	-34	 R0 	31	
 C12	 OBJROW 	-26	 R0 	32	
 C13	 OBJROW 	-57	 R0 	37	
 C14	 OBJROW 	-81	 R0 	38	
 C15	 OBJROW 	-48	 R0 	42	
 C16	 OBJROW 	-82	 R0 	47	
 C17	 OBJROW 	-20	 R0 	48	
 C18	 OBJROW 	-76	 R0 	56	
 C19	 OBJROW 	-96	 R0 	59	
 C20	 OBJROW 	-79	 R0 	59	
 C21	 OBJROW 	-35	 R0 	61	
 C22	 OBJROW 	-64	 R0 	62	
 C23	 OBJROW 	-23	 R0 	62	
 C24	 OBJROW 	-86	 R0 	69	
 C25	 OBJROW 	-3	 R0 	71	
 C26	 OBJROW 	-96	 R0 	76	
 C27	 OBJROW 	-20	 R0 	76	
 C28	 OBJROW 	-85	 R0 	89	
 C29	 OBJROW 	-97	 R0 	89	
RHS
 RHS	 R0 	 978	
BOUNDS
 BV BOUND	C0	 1	
 BV BOUND	C1	 1	
 BV BOUND	C2	 1	
 BV BOUND	C3	 1	
 BV BOUND	C4	 1	
 BV BOUND	C5	 1	
 BV BOUND	C6	 1	
 BV BOUND	C7	 1	
 BV BOUND	C8	 1	
 BV BOUND	C9	 1	
 BV BOUND	C10	 1	
 BV BOUND	C11	 1	
 BV BOUND	C12	 1	
 BV BOUND	C13	 1	
 BV BOUND	C14	 1	
 BV BOUND	C15	 1	
 BV BOUND	C16	 1	
 BV BOUND	C17	 1	
 BV BOUND	C18	 1	
 BV BOUND	C19	 1	
 BV BOUND	C20	 1	
 BV BOUND	C21	 1	
 BV BOUND	C22	 1	
 BV BOUND	C23	 1	
 BV BOUND	C24	 1	
 BV BOUND	C25	 1	
 BV BOUND	C26	 1	
 BV BOUND	C27	 1	
 BV BOUND	C28	 1	
 BV BOUND	C29	 1	
ENDATA
