NAME	DNeg_n30k1j2
ROWS
 N 	 OBJROW
 L	 R0 
COLUMNS
 C0	 OBJROW 	-32	 R0 	1	
 C1	 OBJROW 	-81	 R0 	19	
 C2	 OBJROW 	-33	 R0 	24	
 C3	 OBJROW 	-17	 R0 	30	
 C4	 OBJROW 	-24	 R0 	31	
 C5	 OBJROW 	-46	 R0 	34	
 C6	 OBJROW 	-35	 R0 	37	
 C7	 OBJROW 	-28	 R0 	38	
 C8	 OBJROW 	-45	 R0 	40	
 C9	 OBJROW 	-22	 R0 	51	
 C10	 OBJROW 	-45	 R0 	51	
 C11	 OBJROW 	-28	 R0 	52	
 C12	 OBJROW 	-57	 R0 	53	
 C13	 OBJROW 	-10	 R0 	55	
 C14	 OBJROW 	-18	 R0 	55	
 C15	 OBJROW 	-73	 R0 	57	
 C16	 OBJROW 	-7	 R0 	60	
 C17	 OBJROW 	-67	 R0 	65	
 C18	 OBJROW 	-11	 R0 	66	
 C19	 OBJROW 	-45	 R0 	75	
 C20	 OBJROW 	-78	 R0 	76	
 C21	 OBJROW 	-69	 R0 	79	
 C22	 OBJROW 	-10	 R0 	79	
 C23	 OBJROW 	-56	 R0 	80	
 C24	 OBJROW 	-5	 R0 	83	
 C25	 OBJROW 	-55	 R0 	88	
 C26	 OBJROW 	-23	 R0 	90	
 C27	 OBJROW 	-58	 R0 	96	
 C28	 OBJROW 	-49	 R0 	97	
 C29	 OBJROW 	-74	 R0 	99	
RHS
 RHS	 R0 	 321	
BOUNDS
 BV BOUND	C0	 1	
 BV BOUND	C1	 1	
 BV BOUND	C2	 1	
 BV BOUND	C3	 1	
 BV BOUND	C4	 1	
 BV BOUND	C5	 1	
 BV BOUND	C6	 1	
 BV BOUND	C7	 1	
 BV BOUND	C8	 1	
 BV BOUND	C9	 1	
 BV BOUND	C10	 1	
 BV BOUND	C11	 1	
 BV BOUND	C12	 1	
 BV BOUND	C13	 1	
 BV BOUND	C14	 1	
 BV BOUND	C15	 1	
 BV BOUND	C16	 1	
 BV BOUND	C17	 1	
 BV BOUND	C18	 1	
 BV BOUND	C19	 1	
 BV BOUND	C20	 1	
 BV BOUND	C21	 1	
 BV BOUND	C22	 1	
 BV BOUND	C23	 1	
 BV BOUND	C24	 1	
 BV BOUND	C25	 1	
 BV BOUND	C26	 1	
 BV BOUND	C27	 1	
 BV BOUND	C28	 1	
 BV BOUND	C29	 1	
ENDATA
