NAME	DNeg_n30k7j3
ROWS
 N 	 OBJROW
 L	 R0 
COLUMNS
 C0	 OBJROW 	-39	 R0 	2	
 C1	 OBJROW 	-7	 R0 	9	
 C2	 OBJROW 	-20	 R0 	14	
 C3	 OBJROW 	-59	 R0 	15	
 C4	 OBJROW 	-71	 R0 	17	
 C5	 OBJROW 	-43	 R0 	18	
 C6	 OBJROW 	-67	 R0 	25	
 C7	 OBJROW 	-84	 R0 	29	
 C8	 OBJROW 	-25	 R0 	30	
 C9	 OBJROW 	-5	 R0 	31	
 C10	 OBJROW 	-95	 R0 	33	
 C11	 OBJROW 	-79	 R0 	42	
 C12	 OBJROW 	-22	 R0 	46	
 C13	 OBJROW 	-36	 R0 	48	
 C14	 OBJROW 	-66	 R0 	57	
 C15	 OBJROW 	-31	 R0 	61	
 C16	 OBJROW 	-46	 R0 	61	
 C17	 OBJROW 	-51	 R0 	62	
 C18	 OBJROW 	-45	 R0 	62	
 C19	 OBJROW 	-34	 R0 	64	
 C20	 OBJROW 	-58	 R0 	66	
 C21	 OBJROW 	-93	 R0 	67	
 C22	 OBJROW 	-49	 R0 	68	
 C23	 OBJROW 	-16	 R0 	70	
 C24	 OBJROW 	-3	 R0 	70	
 C25	 OBJROW 	-46	 R0 	79	
 C26	 OBJROW 	-69	 R0 	82	
 C27	 OBJROW 	-51	 R0 	86	
 C28	 OBJROW 	-69	 R0 	89	
 C29	 OBJROW 	-45	 R0 	97	
RHS
 RHS	 R0 	 1091	
BOUNDS
 BV BOUND	C0	 1	
 BV BOUND	C1	 1	
 BV BOUND	C2	 1	
 BV BOUND	C3	 1	
 BV BOUND	C4	 1	
 BV BOUND	C5	 1	
 BV BOUND	C6	 1	
 BV BOUND	C7	 1	
 BV BOUND	C8	 1	
 BV BOUND	C9	 1	
 BV BOUND	C10	 1	
 BV BOUND	C11	 1	
 BV BOUND	C12	 1	
 BV BOUND	C13	 1	
 BV BOUND	C14	 1	
 BV BOUND	C15	 1	
 BV BOUND	C16	 1	
 BV BOUND	C17	 1	
 BV BOUND	C18	 1	
 BV BOUND	C19	 1	
 BV BOUND	C20	 1	
 BV BOUND	C21	 1	
 BV BOUND	C22	 1	
 BV BOUND	C23	 1	
 BV BOUND	C24	 1	
 BV BOUND	C25	 1	
 BV BOUND	C26	 1	
 BV BOUND	C27	 1	
 BV BOUND	C28	 1	
 BV BOUND	C29	 1	
ENDATA
