NAME	DNeg_n25k2j6
ROWS
 N 	 OBJROW
 L	 R0 
COLUMNS
 C0	 OBJROW 	-2	 R0 	3	
 C1	 OBJROW 	-72	 R0 	12	
 C2	 OBJROW 	-94	 R0 	17	
 C3	 OBJROW 	-75	 R0 	18	
 C4	 OBJROW 	-28	 R0 	19	
 C5	 OBJROW 	-98	 R0 	27	
 C6	 OBJROW 	-59	 R0 	28	
 C7	 OBJROW 	-81	 R0 	29	
 C8	 OBJROW 	-83	 R0 	29	
 C9	 OBJROW 	-51	 R0 	34	
 C10	 OBJROW 	-95	 R0 	43	
 C11	 OBJROW 	-63	 R0 	57	
 C12	 OBJROW 	-23	 R0 	62	
 C13	 OBJROW 	-5	 R0 	65	
 C14	 OBJROW 	-5	 R0 	66	
 C15	 OBJROW 	-81	 R0 	67	
 C16	 OBJROW 	-96	 R0 	73	
 C17	 OBJROW 	-14	 R0 	74	
 C18	 OBJROW 	-21	 R0 	77	
 C19	 OBJROW 	-83	 R0 	81	
 C20	 OBJROW 	-15	 R0 	86	
 C21	 OBJROW 	-35	 R0 	86	
 C22	 OBJROW 	-9	 R0 	89	
 C23	 OBJROW 	-70	 R0 	93	
 C24	 OBJROW 	-48	 R0 	94	
RHS
 RHS	 R0 	 363	
BOUNDS
 BV BOUND	C0	 1	
 BV BOUND	C1	 1	
 BV BOUND	C2	 1	
 BV BOUND	C3	 1	
 BV BOUND	C4	 1	
 BV BOUND	C5	 1	
 BV BOUND	C6	 1	
 BV BOUND	C7	 1	
 BV BOUND	C8	 1	
 BV BOUND	C9	 1	
 BV BOUND	C10	 1	
 BV BOUND	C11	 1	
 BV BOUND	C12	 1	
 BV BOUND	C13	 1	
 BV BOUND	C14	 1	
 BV BOUND	C15	 1	
 BV BOUND	C16	 1	
 BV BOUND	C17	 1	
 BV BOUND	C18	 1	
 BV BOUND	C19	 1	
 BV BOUND	C20	 1	
 BV BOUND	C21	 1	
 BV BOUND	C22	 1	
 BV BOUND	C23	 1	
 BV BOUND	C24	 1	
ENDATA
