NAME	DNeg_n25k7j5
ROWS
 N 	 OBJROW
 L	 R0 
COLUMNS
 C0	 OBJROW 	-71	 R0 	1	
 C1	 OBJROW 	-48	 R0 	2	
 C2	 OBJROW 	-98	 R0 	2	
 C3	 OBJROW 	-9	 R0 	23	
 C4	 OBJROW 	-63	 R0 	28	
 C5	 OBJROW 	-84	 R0 	40	
 C6	 OBJROW 	-80	 R0 	41	
 C7	 OBJROW 	-11	 R0 	46	
 C8	 OBJROW 	-60	 R0 	47	
 C9	 OBJROW 	-37	 R0 	48	
 C10	 OBJROW 	-12	 R0 	52	
 C11	 OBJROW 	-18	 R0 	57	
 C12	 OBJROW 	-81	 R0 	59	
 C13	 OBJROW 	-24	 R0 	60	
 C14	 OBJROW 	-98	 R0 	66	
 C15	 OBJROW 	-4	 R0 	66	
 C16	 OBJROW 	-7	 R0 	73	
 C17	 OBJROW 	-60	 R0 	74	
 C18	 OBJROW 	-27	 R0 	81	
 C19	 OBJROW 	-90	 R0 	86	
 C20	 OBJROW 	-19	 R0 	90	
 C21	 OBJROW 	-51	 R0 	94	
 C22	 OBJROW 	-71	 R0 	96	
 C23	 OBJROW 	-94	 R0 	96	
 C24	 OBJROW 	-86	 R0 	98	
RHS
 RHS	 R0 	 1038	
BOUNDS
 BV BOUND	C0	 1	
 BV BOUND	C1	 1	
 BV BOUND	C2	 1	
 BV BOUND	C3	 1	
 BV BOUND	C4	 1	
 BV BOUND	C5	 1	
 BV BOUND	C6	 1	
 BV BOUND	C7	 1	
 BV BOUND	C8	 1	
 BV BOUND	C9	 1	
 BV BOUND	C10	 1	
 BV BOUND	C11	 1	
 BV BOUND	C12	 1	
 BV BOUND	C13	 1	
 BV BOUND	C14	 1	
 BV BOUND	C15	 1	
 BV BOUND	C16	 1	
 BV BOUND	C17	 1	
 BV BOUND	C18	 1	
 BV BOUND	C19	 1	
 BV BOUND	C20	 1	
 BV BOUND	C21	 1	
 BV BOUND	C22	 1	
 BV BOUND	C23	 1	
 BV BOUND	C24	 1	
ENDATA
