NAME	DNeg_n20k4j1
ROWS
 N 	 OBJROW
 L	 R0 
COLUMNS
 C0	 OBJROW 	-89	 R0 	1	
 C1	 OBJROW 	-71	 R0 	1	
 C2	 OBJROW 	-55	 R0 	3	
 C3	 OBJROW 	-31	 R0 	5	
 C4	 OBJROW 	-22	 R0 	21	
 C5	 OBJROW 	-82	 R0 	24	
 C6	 OBJROW 	-13	 R0 	29	
 C7	 OBJROW 	-75	 R0 	31	
 C8	 OBJROW 	-44	 R0 	36	
 C9	 OBJROW 	-85	 R0 	44	
 C10	 OBJROW 	-80	 R0 	53	
 C11	 OBJROW 	-19	 R0 	53	
 C12	 OBJROW 	-59	 R0 	57	
 C13	 OBJROW 	-80	 R0 	63	
 C14	 OBJROW 	-33	 R0 	65	
 C15	 OBJROW 	-8	 R0 	65	
 C16	 OBJROW 	-70	 R0 	66	
 C17	 OBJROW 	-50	 R0 	67	
 C18	 OBJROW 	-54	 R0 	67	
 C19	 OBJROW 	-42	 R0 	83	
RHS
 RHS	 R0 	 380	
BOUNDS
 BV BOUND	C0	 1	
 BV BOUND	C1	 1	
 BV BOUND	C2	 1	
 BV BOUND	C3	 1	
 BV BOUND	C4	 1	
 BV BOUND	C5	 1	
 BV BOUND	C6	 1	
 BV BOUND	C7	 1	
 BV BOUND	C8	 1	
 BV BOUND	C9	 1	
 BV BOUND	C10	 1	
 BV BOUND	C11	 1	
 BV BOUND	C12	 1	
 BV BOUND	C13	 1	
 BV BOUND	C14	 1	
 BV BOUND	C15	 1	
 BV BOUND	C16	 1	
 BV BOUND	C17	 1	
 BV BOUND	C18	 1	
 BV BOUND	C19	 1	
ENDATA
