NAME	DNeg_n30k6j0
ROWS
 N 	 OBJROW
 L	 R0 
COLUMNS
 C0	 OBJROW 	-75	 R0 	3	
 C1	 OBJROW 	-54	 R0 	3	
 C2	 OBJROW 	-54	 R0 	12	
 C3	 OBJROW 	-86	 R0 	14	
 C4	 OBJROW 	-28	 R0 	20	
 C5	 OBJROW 	-84	 R0 	20	
 C6	 OBJROW 	-93	 R0 	26	
 C7	 OBJROW 	-6	 R0 	28	
 C8	 OBJROW 	-71	 R0 	30	
 C9	 OBJROW 	-90	 R0 	47	
 C10	 OBJROW 	-6	 R0 	49	
 C11	 OBJROW 	-11	 R0 	52	
 C12	 OBJROW 	-43	 R0 	52	
 C13	 OBJROW 	-82	 R0 	52	
 C14	 OBJROW 	-65	 R0 	56	
 C15	 OBJROW 	-55	 R0 	59	
 C16	 OBJROW 	-85	 R0 	60	
 C17	 OBJROW 	-97	 R0 	61	
 C18	 OBJROW 	-28	 R0 	64	
 C19	 OBJROW 	-44	 R0 	67	
 C20	 OBJROW 	-58	 R0 	71	
 C21	 OBJROW 	-74	 R0 	73	
 C22	 OBJROW 	-1	 R0 	74	
 C23	 OBJROW 	-38	 R0 	76	
 C24	 OBJROW 	-65	 R0 	76	
 C25	 OBJROW 	-40	 R0 	79	
 C26	 OBJROW 	-98	 R0 	85	
 C27	 OBJROW 	-83	 R0 	93	
 C28	 OBJROW 	-87	 R0 	93	
 C29	 OBJROW 	-50	 R0 	96	
RHS
 RHS	 R0 	 1013	
BOUNDS
 BV BOUND	C0	 1	
 BV BOUND	C1	 1	
 BV BOUND	C2	 1	
 BV BOUND	C3	 1	
 BV BOUND	C4	 1	
 BV BOUND	C5	 1	
 BV BOUND	C6	 1	
 BV BOUND	C7	 1	
 BV BOUND	C8	 1	
 BV BOUND	C9	 1	
 BV BOUND	C10	 1	
 BV BOUND	C11	 1	
 BV BOUND	C12	 1	
 BV BOUND	C13	 1	
 BV BOUND	C14	 1	
 BV BOUND	C15	 1	
 BV BOUND	C16	 1	
 BV BOUND	C17	 1	
 BV BOUND	C18	 1	
 BV BOUND	C19	 1	
 BV BOUND	C20	 1	
 BV BOUND	C21	 1	
 BV BOUND	C22	 1	
 BV BOUND	C23	 1	
 BV BOUND	C24	 1	
 BV BOUND	C25	 1	
 BV BOUND	C26	 1	
 BV BOUND	C27	 1	
 BV BOUND	C28	 1	
 BV BOUND	C29	 1	
ENDATA
