NAME	DNeg_n25k5j3
ROWS
 N 	 OBJROW
 L	 R0 
COLUMNS
 C0	 OBJROW 	-80	 R0 	4	
 C1	 OBJROW 	-62	 R0 	10	
 C2	 OBJROW 	-43	 R0 	17	
 C3	 OBJROW 	-13	 R0 	18	
 C4	 OBJROW 	-43	 R0 	20	
 C5	 OBJROW 	-2	 R0 	26	
 C6	 OBJROW 	-57	 R0 	29	
 C7	 OBJROW 	-46	 R0 	29	
 C8	 OBJROW 	-25	 R0 	30	
 C9	 OBJROW 	-75	 R0 	30	
 C10	 OBJROW 	-76	 R0 	41	
 C11	 OBJROW 	-33	 R0 	43	
 C12	 OBJROW 	-96	 R0 	59	
 C13	 OBJROW 	-28	 R0 	63	
 C14	 OBJROW 	-23	 R0 	69	
 C15	 OBJROW 	-93	 R0 	74	
 C16	 OBJROW 	-13	 R0 	74	
 C17	 OBJROW 	-69	 R0 	75	
 C18	 OBJROW 	-95	 R0 	76	
 C19	 OBJROW 	-4	 R0 	80	
 C20	 OBJROW 	-77	 R0 	82	
 C21	 OBJROW 	-17	 R0 	86	
 C22	 OBJROW 	-87	 R0 	87	
 C23	 OBJROW 	-8	 R0 	91	
 C24	 OBJROW 	-98	 R0 	92	
RHS
 RHS	 R0 	 712	
BOUNDS
 BV BOUND	C0	 1	
 BV BOUND	C1	 1	
 BV BOUND	C2	 1	
 BV BOUND	C3	 1	
 BV BOUND	C4	 1	
 BV BOUND	C5	 1	
 BV BOUND	C6	 1	
 BV BOUND	C7	 1	
 BV BOUND	C8	 1	
 BV BOUND	C9	 1	
 BV BOUND	C10	 1	
 BV BOUND	C11	 1	
 BV BOUND	C12	 1	
 BV BOUND	C13	 1	
 BV BOUND	C14	 1	
 BV BOUND	C15	 1	
 BV BOUND	C16	 1	
 BV BOUND	C17	 1	
 BV BOUND	C18	 1	
 BV BOUND	C19	 1	
 BV BOUND	C20	 1	
 BV BOUND	C21	 1	
 BV BOUND	C22	 1	
 BV BOUND	C23	 1	
 BV BOUND	C24	 1	
ENDATA
