NAME	DNeg_n20k7j6
ROWS
 N 	 OBJROW
 L	 R0 
COLUMNS
 C0	 OBJROW 	-43	 R0 	16	
 C1	 OBJROW 	-30	 R0 	19	
 C2	 OBJROW 	-55	 R0 	21	
 C3	 OBJROW 	-5	 R0 	23	
 C4	 OBJROW 	-65	 R0 	23	
 C5	 OBJROW 	-86	 R0 	25	
 C6	 OBJROW 	-13	 R0 	27	
 C7	 OBJROW 	-11	 R0 	32	
 C8	 OBJROW 	-8	 R0 	33	
 C9	 OBJROW 	-30	 R0 	36	
 C10	 OBJROW 	-94	 R0 	44	
 C11	 OBJROW 	-74	 R0 	52	
 C12	 OBJROW 	-8	 R0 	62	
 C13	 OBJROW 	-49	 R0 	66	
 C14	 OBJROW 	-10	 R0 	74	
 C15	 OBJROW 	-65	 R0 	74	
 C16	 OBJROW 	-4	 R0 	75	
 C17	 OBJROW 	-74	 R0 	77	
 C18	 OBJROW 	-52	 R0 	80	
 C19	 OBJROW 	-69	 R0 	88	
RHS
 RHS	 R0 	 689	
BOUNDS
 BV BOUND	C0	 1	
 BV BOUND	C1	 1	
 BV BOUND	C2	 1	
 BV BOUND	C3	 1	
 BV BOUND	C4	 1	
 BV BOUND	C5	 1	
 BV BOUND	C6	 1	
 BV BOUND	C7	 1	
 BV BOUND	C8	 1	
 BV BOUND	C9	 1	
 BV BOUND	C10	 1	
 BV BOUND	C11	 1	
 BV BOUND	C12	 1	
 BV BOUND	C13	 1	
 BV BOUND	C14	 1	
 BV BOUND	C15	 1	
 BV BOUND	C16	 1	
 BV BOUND	C17	 1	
 BV BOUND	C18	 1	
 BV BOUND	C19	 1	
ENDATA
