NAME	DNeg_n25k0j1
ROWS
 N 	 OBJROW
 L	 R0 
COLUMNS
 C0	 OBJROW 	-92	 R0 	3	
 C1	 OBJROW 	-80	 R0 	3	
 C2	 OBJROW 	-67	 R0 	10	
 C3	 OBJROW 	-19	 R0 	10	
 C4	 OBJROW 	-70	 R0 	17	
 C5	 OBJROW 	-45	 R0 	23	
 C6	 OBJROW 	-74	 R0 	29	
 C7	 OBJROW 	-31	 R0 	35	
 C8	 OBJROW 	-66	 R0 	37	
 C9	 OBJROW 	-57	 R0 	38	
 C10	 OBJROW 	-44	 R0 	39	
 C11	 OBJROW 	-26	 R0 	49	
 C12	 OBJROW 	-92	 R0 	49	
 C13	 OBJROW 	-77	 R0 	56	
 C14	 OBJROW 	-29	 R0 	57	
 C15	 OBJROW 	-98	 R0 	59	
 C16	 OBJROW 	-38	 R0 	66	
 C17	 OBJROW 	-49	 R0 	69	
 C18	 OBJROW 	-89	 R0 	78	
 C19	 OBJROW 	-53	 R0 	90	
 C20	 OBJROW 	-53	 R0 	93	
 C21	 OBJROW 	-3	 R0 	94	
 C22	 OBJROW 	-80	 R0 	95	
 C23	 OBJROW 	-23	 R0 	96	
 C24	 OBJROW 	-47	 R0 	97	
RHS
 RHS	 R0 	 118	
BOUNDS
 BV BOUND	C0	 1	
 BV BOUND	C1	 1	
 BV BOUND	C2	 1	
 BV BOUND	C3	 1	
 BV BOUND	C4	 1	
 BV BOUND	C5	 1	
 BV BOUND	C6	 1	
 BV BOUND	C7	 1	
 BV BOUND	C8	 1	
 BV BOUND	C9	 1	
 BV BOUND	C10	 1	
 BV BOUND	C11	 1	
 BV BOUND	C12	 1	
 BV BOUND	C13	 1	
 BV BOUND	C14	 1	
 BV BOUND	C15	 1	
 BV BOUND	C16	 1	
 BV BOUND	C17	 1	
 BV BOUND	C18	 1	
 BV BOUND	C19	 1	
 BV BOUND	C20	 1	
 BV BOUND	C21	 1	
 BV BOUND	C22	 1	
 BV BOUND	C23	 1	
 BV BOUND	C24	 1	
ENDATA
