NAME	DNeg_n30k4j8
ROWS
 N 	 OBJROW
 L	 R0 
COLUMNS
 C0	 OBJROW 	-73	 R0 	1	
 C1	 OBJROW 	-63	 R0 	6	
 C2	 OBJROW 	-68	 R0 	6	
 C3	 OBJROW 	-29	 R0 	11	
 C4	 OBJROW 	-22	 R0 	16	
 C5	 OBJROW 	-29	 R0 	19	
 C6	 OBJROW 	-11	 R0 	20	
 C7	 OBJROW 	-86	 R0 	20	
 C8	 OBJROW 	-66	 R0 	20	
 C9	 OBJROW 	-42	 R0 	23	
 C10	 OBJROW 	-56	 R0 	27	
 C11	 OBJROW 	-37	 R0 	30	
 C12	 OBJROW 	-68	 R0 	30	
 C13	 OBJROW 	-8	 R0 	34	
 C14	 OBJROW 	-89	 R0 	35	
 C15	 OBJROW 	-91	 R0 	38	
 C16	 OBJROW 	-39	 R0 	44	
 C17	 OBJROW 	-74	 R0 	49	
 C18	 OBJROW 	-92	 R0 	63	
 C19	 OBJROW 	-84	 R0 	65	
 C20	 OBJROW 	-92	 R0 	66	
 C21	 OBJROW 	-55	 R0 	79	
 C22	 OBJROW 	-12	 R0 	82	
 C23	 OBJROW 	-29	 R0 	86	
 C24	 OBJROW 	-99	 R0 	87	
 C25	 OBJROW 	-13	 R0 	92	
 C26	 OBJROW 	-1	 R0 	94	
 C27	 OBJROW 	-2	 R0 	95	
 C28	 OBJROW 	-34	 R0 	96	
 C29	 OBJROW 	-50	 R0 	97	
RHS
 RHS	 R0 	 651	
BOUNDS
 BV BOUND	C0	 1	
 BV BOUND	C1	 1	
 BV BOUND	C2	 1	
 BV BOUND	C3	 1	
 BV BOUND	C4	 1	
 BV BOUND	C5	 1	
 BV BOUND	C6	 1	
 BV BOUND	C7	 1	
 BV BOUND	C8	 1	
 BV BOUND	C9	 1	
 BV BOUND	C10	 1	
 BV BOUND	C11	 1	
 BV BOUND	C12	 1	
 BV BOUND	C13	 1	
 BV BOUND	C14	 1	
 BV BOUND	C15	 1	
 BV BOUND	C16	 1	
 BV BOUND	C17	 1	
 BV BOUND	C18	 1	
 BV BOUND	C19	 1	
 BV BOUND	C20	 1	
 BV BOUND	C21	 1	
 BV BOUND	C22	 1	
 BV BOUND	C23	 1	
 BV BOUND	C24	 1	
 BV BOUND	C25	 1	
 BV BOUND	C26	 1	
 BV BOUND	C27	 1	
 BV BOUND	C28	 1	
 BV BOUND	C29	 1	
ENDATA
