NAME	DNeg_n30k0j9
ROWS
 N 	 OBJROW
 L	 R0 
COLUMNS
 C0	 OBJROW 	-4	 R0 	2	
 C1	 OBJROW 	-68	 R0 	9	
 C2	 OBJROW 	-38	 R0 	12	
 C3	 OBJROW 	-30	 R0 	13	
 C4	 OBJROW 	-76	 R0 	16	
 C5	 OBJROW 	-93	 R0 	24	
 C6	 OBJROW 	-17	 R0 	25	
 C7	 OBJROW 	-63	 R0 	26	
 C8	 OBJROW 	-62	 R0 	30	
 C9	 OBJROW 	-67	 R0 	38	
 C10	 OBJROW 	-41	 R0 	43	
 C11	 OBJROW 	-58	 R0 	52	
 C12	 OBJROW 	-93	 R0 	54	
 C13	 OBJROW 	-8	 R0 	56	
 C14	 OBJROW 	-1	 R0 	58	
 C15	 OBJROW 	-76	 R0 	59	
 C16	 OBJROW 	-11	 R0 	64	
 C17	 OBJROW 	-11	 R0 	65	
 C18	 OBJROW 	-43	 R0 	79	
 C19	 OBJROW 	-82	 R0 	80	
 C20	 OBJROW 	-52	 R0 	81	
 C21	 OBJROW 	-87	 R0 	81	
 C22	 OBJROW 	-9	 R0 	82	
 C23	 OBJROW 	-12	 R0 	85	
 C24	 OBJROW 	-48	 R0 	86	
 C25	 OBJROW 	-17	 R0 	87	
 C26	 OBJROW 	-35	 R0 	93	
 C27	 OBJROW 	-17	 R0 	93	
 C28	 OBJROW 	-16	 R0 	95	
 C29	 OBJROW 	-46	 R0 	99	
RHS
 RHS	 R0 	 154	
BOUNDS
 BV BOUND	C0	 1	
 BV BOUND	C1	 1	
 BV BOUND	C2	 1	
 BV BOUND	C3	 1	
 BV BOUND	C4	 1	
 BV BOUND	C5	 1	
 BV BOUND	C6	 1	
 BV BOUND	C7	 1	
 BV BOUND	C8	 1	
 BV BOUND	C9	 1	
 BV BOUND	C10	 1	
 BV BOUND	C11	 1	
 BV BOUND	C12	 1	
 BV BOUND	C13	 1	
 BV BOUND	C14	 1	
 BV BOUND	C15	 1	
 BV BOUND	C16	 1	
 BV BOUND	C17	 1	
 BV BOUND	C18	 1	
 BV BOUND	C19	 1	
 BV BOUND	C20	 1	
 BV BOUND	C21	 1	
 BV BOUND	C22	 1	
 BV BOUND	C23	 1	
 BV BOUND	C24	 1	
 BV BOUND	C25	 1	
 BV BOUND	C26	 1	
 BV BOUND	C27	 1	
 BV BOUND	C28	 1	
 BV BOUND	C29	 1	
ENDATA
