NAME	DNeg_n15k6j4
ROWS
 N 	 OBJROW
 L	 R0 
COLUMNS
 C0	 OBJROW 	-90	 R0 	4	
 C1	 OBJROW 	-47	 R0 	6	
 C2	 OBJROW 	-79	 R0 	6	
 C3	 OBJROW 	-56	 R0 	15	
 C4	 OBJROW 	-97	 R0 	17	
 C5	 OBJROW 	-75	 R0 	21	
 C6	 OBJROW 	-76	 R0 	23	
 C7	 OBJROW 	-33	 R0 	38	
 C8	 OBJROW 	-73	 R0 	51	
 C9	 OBJROW 	-37	 R0 	56	
 C10	 OBJROW 	-83	 R0 	59	
 C11	 OBJROW 	-51	 R0 	68	
 C12	 OBJROW 	-72	 R0 	82	
 C13	 OBJROW 	-93	 R0 	89	
 C14	 OBJROW 	-63	 R0 	98	
RHS
 RHS	 R0 	 403	
BOUNDS
 BV BOUND	C0	 1	
 BV BOUND	C1	 1	
 BV BOUND	C2	 1	
 BV BOUND	C3	 1	
 BV BOUND	C4	 1	
 BV BOUND	C5	 1	
 BV BOUND	C6	 1	
 BV BOUND	C7	 1	
 BV BOUND	C8	 1	
 BV BOUND	C9	 1	
 BV BOUND	C10	 1	
 BV BOUND	C11	 1	
 BV BOUND	C12	 1	
 BV BOUND	C13	 1	
 BV BOUND	C14	 1	
ENDATA
