NAME	DNeg_n20k3j1
ROWS
 N 	 OBJROW
 L	 R0 
COLUMNS
 C0	 OBJROW 	-66	 R0 	2	
 C1	 OBJROW 	-26	 R0 	22	
 C2	 OBJROW 	-11	 R0 	24	
 C3	 OBJROW 	-54	 R0 	26	
 C4	 OBJROW 	-35	 R0 	32	
 C5	 OBJROW 	-1	 R0 	40	
 C6	 OBJROW 	-47	 R0 	48	
 C7	 OBJROW 	-2	 R0 	49	
 C8	 OBJROW 	-17	 R0 	58	
 C9	 OBJROW 	-13	 R0 	63	
 C10	 OBJROW 	-21	 R0 	68	
 C11	 OBJROW 	-69	 R0 	68	
 C12	 OBJROW 	-81	 R0 	73	
 C13	 OBJROW 	-82	 R0 	75	
 C14	 OBJROW 	-85	 R0 	80	
 C15	 OBJROW 	-95	 R0 	83	
 C16	 OBJROW 	-23	 R0 	83	
 C17	 OBJROW 	-67	 R0 	85	
 C18	 OBJROW 	-91	 R0 	94	
 C19	 OBJROW 	-26	 R0 	99	
RHS
 RHS	 R0 	 427	
BOUNDS
 BV BOUND	C0	 1	
 BV BOUND	C1	 1	
 BV BOUND	C2	 1	
 BV BOUND	C3	 1	
 BV BOUND	C4	 1	
 BV BOUND	C5	 1	
 BV BOUND	C6	 1	
 BV BOUND	C7	 1	
 BV BOUND	C8	 1	
 BV BOUND	C9	 1	
 BV BOUND	C10	 1	
 BV BOUND	C11	 1	
 BV BOUND	C12	 1	
 BV BOUND	C13	 1	
 BV BOUND	C14	 1	
 BV BOUND	C15	 1	
 BV BOUND	C16	 1	
 BV BOUND	C17	 1	
 BV BOUND	C18	 1	
 BV BOUND	C19	 1	
ENDATA
