NAME	DNeg_n20k4j3
ROWS
 N 	 OBJROW
 L	 R0 
COLUMNS
 C0	 OBJROW 	-70	 R0 	1	
 C1	 OBJROW 	-86	 R0 	7	
 C2	 OBJROW 	-59	 R0 	9	
 C3	 OBJROW 	-77	 R0 	15	
 C4	 OBJROW 	-63	 R0 	20	
 C5	 OBJROW 	-46	 R0 	30	
 C6	 OBJROW 	-81	 R0 	37	
 C7	 OBJROW 	-11	 R0 	50	
 C8	 OBJROW 	-90	 R0 	57	
 C9	 OBJROW 	-81	 R0 	58	
 C10	 OBJROW 	-91	 R0 	59	
 C11	 OBJROW 	-85	 R0 	66	
 C12	 OBJROW 	-64	 R0 	68	
 C13	 OBJROW 	-9	 R0 	79	
 C14	 OBJROW 	-59	 R0 	83	
 C15	 OBJROW 	-51	 R0 	86	
 C16	 OBJROW 	-61	 R0 	97	
 C17	 OBJROW 	-50	 R0 	97	
 C18	 OBJROW 	-83	 R0 	98	
 C19	 OBJROW 	-78	 R0 	99	
RHS
 RHS	 R0 	 508	
BOUNDS
 BV BOUND	C0	 1	
 BV BOUND	C1	 1	
 BV BOUND	C2	 1	
 BV BOUND	C3	 1	
 BV BOUND	C4	 1	
 BV BOUND	C5	 1	
 BV BOUND	C6	 1	
 BV BOUND	C7	 1	
 BV BOUND	C8	 1	
 BV BOUND	C9	 1	
 BV BOUND	C10	 1	
 BV BOUND	C11	 1	
 BV BOUND	C12	 1	
 BV BOUND	C13	 1	
 BV BOUND	C14	 1	
 BV BOUND	C15	 1	
 BV BOUND	C16	 1	
 BV BOUND	C17	 1	
 BV BOUND	C18	 1	
 BV BOUND	C19	 1	
ENDATA
