NAME	DNeg_n30k0j1
ROWS
 N 	 OBJROW
 L	 R0 
COLUMNS
 C0	 OBJROW 	-6	 R0 	8	
 C1	 OBJROW 	-67	 R0 	13	
 C2	 OBJROW 	-49	 R0 	14	
 C3	 OBJROW 	-45	 R0 	25	
 C4	 OBJROW 	-90	 R0 	31	
 C5	 OBJROW 	-16	 R0 	33	
 C6	 OBJROW 	-69	 R0 	34	
 C7	 OBJROW 	-14	 R0 	36	
 C8	 OBJROW 	-61	 R0 	37	
 C9	 OBJROW 	-13	 R0 	45	
 C10	 OBJROW 	-32	 R0 	49	
 C11	 OBJROW 	-32	 R0 	52	
 C12	 OBJROW 	-52	 R0 	52	
 C13	 OBJROW 	-96	 R0 	54	
 C14	 OBJROW 	-15	 R0 	58	
 C15	 OBJROW 	-21	 R0 	63	
 C16	 OBJROW 	-88	 R0 	65	
 C17	 OBJROW 	-39	 R0 	67	
 C18	 OBJROW 	-5	 R0 	78	
 C19	 OBJROW 	-55	 R0 	80	
 C20	 OBJROW 	-22	 R0 	81	
 C21	 OBJROW 	-83	 R0 	84	
 C22	 OBJROW 	-3	 R0 	84	
 C23	 OBJROW 	-27	 R0 	86	
 C24	 OBJROW 	-83	 R0 	88	
 C25	 OBJROW 	-46	 R0 	96	
 C26	 OBJROW 	-74	 R0 	98	
 C27	 OBJROW 	-76	 R0 	98	
 C28	 OBJROW 	-6	 R0 	98	
 C29	 OBJROW 	-2	 R0 	99	
RHS
 RHS	 R0 	 165	
BOUNDS
 BV BOUND	C0	 1	
 BV BOUND	C1	 1	
 BV BOUND	C2	 1	
 BV BOUND	C3	 1	
 BV BOUND	C4	 1	
 BV BOUND	C5	 1	
 BV BOUND	C6	 1	
 BV BOUND	C7	 1	
 BV BOUND	C8	 1	
 BV BOUND	C9	 1	
 BV BOUND	C10	 1	
 BV BOUND	C11	 1	
 BV BOUND	C12	 1	
 BV BOUND	C13	 1	
 BV BOUND	C14	 1	
 BV BOUND	C15	 1	
 BV BOUND	C16	 1	
 BV BOUND	C17	 1	
 BV BOUND	C18	 1	
 BV BOUND	C19	 1	
 BV BOUND	C20	 1	
 BV BOUND	C21	 1	
 BV BOUND	C22	 1	
 BV BOUND	C23	 1	
 BV BOUND	C24	 1	
 BV BOUND	C25	 1	
 BV BOUND	C26	 1	
 BV BOUND	C27	 1	
 BV BOUND	C28	 1	
 BV BOUND	C29	 1	
ENDATA
