NAME	DNeg_n30k5j7
ROWS
 N 	 OBJROW
 L	 R0 
COLUMNS
 C0	 OBJROW 	-11	 R0 	2	
 C1	 OBJROW 	-7	 R0 	3	
 C2	 OBJROW 	-17	 R0 	8	
 C3	 OBJROW 	-80	 R0 	9	
 C4	 OBJROW 	-43	 R0 	12	
 C5	 OBJROW 	-15	 R0 	22	
 C6	 OBJROW 	-32	 R0 	25	
 C7	 OBJROW 	-77	 R0 	25	
 C8	 OBJROW 	-2	 R0 	31	
 C9	 OBJROW 	-32	 R0 	31	
 C10	 OBJROW 	-33	 R0 	38	
 C11	 OBJROW 	-94	 R0 	44	
 C12	 OBJROW 	-81	 R0 	46	
 C13	 OBJROW 	-40	 R0 	51	
 C14	 OBJROW 	-23	 R0 	54	
 C15	 OBJROW 	-71	 R0 	55	
 C16	 OBJROW 	-15	 R0 	56	
 C17	 OBJROW 	-97	 R0 	59	
 C18	 OBJROW 	-4	 R0 	64	
 C19	 OBJROW 	-97	 R0 	66	
 C20	 OBJROW 	-78	 R0 	81	
 C21	 OBJROW 	-92	 R0 	81	
 C22	 OBJROW 	-28	 R0 	85	
 C23	 OBJROW 	-2	 R0 	87	
 C24	 OBJROW 	-64	 R0 	88	
 C25	 OBJROW 	-70	 R0 	88	
 C26	 OBJROW 	-42	 R0 	92	
 C27	 OBJROW 	-83	 R0 	93	
 C28	 OBJROW 	-41	 R0 	94	
 C29	 OBJROW 	-51	 R0 	95	
RHS
 RHS	 R0 	 865	
BOUNDS
 BV BOUND	C0	 1	
 BV BOUND	C1	 1	
 BV BOUND	C2	 1	
 BV BOUND	C3	 1	
 BV BOUND	C4	 1	
 BV BOUND	C5	 1	
 BV BOUND	C6	 1	
 BV BOUND	C7	 1	
 BV BOUND	C8	 1	
 BV BOUND	C9	 1	
 BV BOUND	C10	 1	
 BV BOUND	C11	 1	
 BV BOUND	C12	 1	
 BV BOUND	C13	 1	
 BV BOUND	C14	 1	
 BV BOUND	C15	 1	
 BV BOUND	C16	 1	
 BV BOUND	C17	 1	
 BV BOUND	C18	 1	
 BV BOUND	C19	 1	
 BV BOUND	C20	 1	
 BV BOUND	C21	 1	
 BV BOUND	C22	 1	
 BV BOUND	C23	 1	
 BV BOUND	C24	 1	
 BV BOUND	C25	 1	
 BV BOUND	C26	 1	
 BV BOUND	C27	 1	
 BV BOUND	C28	 1	
 BV BOUND	C29	 1	
ENDATA
