NAME	DNeg_n25k6j1
ROWS
 N 	 OBJROW
 L	 R0 
COLUMNS
 C0	 OBJROW 	-60	 R0 	8	
 C1	 OBJROW 	-40	 R0 	8	
 C2	 OBJROW 	-20	 R0 	11	
 C3	 OBJROW 	-29	 R0 	12	
 C4	 OBJROW 	-29	 R0 	17	
 C5	 OBJROW 	-84	 R0 	20	
 C6	 OBJROW 	-19	 R0 	22	
 C7	 OBJROW 	-52	 R0 	23	
 C8	 OBJROW 	-94	 R0 	23	
 C9	 OBJROW 	-89	 R0 	31	
 C10	 OBJROW 	-92	 R0 	36	
 C11	 OBJROW 	-58	 R0 	37	
 C12	 OBJROW 	-82	 R0 	37	
 C13	 OBJROW 	-36	 R0 	45	
 C14	 OBJROW 	-56	 R0 	47	
 C15	 OBJROW 	-91	 R0 	47	
 C16	 OBJROW 	-45	 R0 	50	
 C17	 OBJROW 	-25	 R0 	62	
 C18	 OBJROW 	-14	 R0 	71	
 C19	 OBJROW 	-22	 R0 	79	
 C20	 OBJROW 	-42	 R0 	80	
 C21	 OBJROW 	-30	 R0 	88	
 C22	 OBJROW 	-83	 R0 	96	
 C23	 OBJROW 	-67	 R0 	96	
 C24	 OBJROW 	-93	 R0 	97	
RHS
 RHS	 R0 	 728	
BOUNDS
 BV BOUND	C0	 1	
 BV BOUND	C1	 1	
 BV BOUND	C2	 1	
 BV BOUND	C3	 1	
 BV BOUND	C4	 1	
 BV BOUND	C5	 1	
 BV BOUND	C6	 1	
 BV BOUND	C7	 1	
 BV BOUND	C8	 1	
 BV BOUND	C9	 1	
 BV BOUND	C10	 1	
 BV BOUND	C11	 1	
 BV BOUND	C12	 1	
 BV BOUND	C13	 1	
 BV BOUND	C14	 1	
 BV BOUND	C15	 1	
 BV BOUND	C16	 1	
 BV BOUND	C17	 1	
 BV BOUND	C18	 1	
 BV BOUND	C19	 1	
 BV BOUND	C20	 1	
 BV BOUND	C21	 1	
 BV BOUND	C22	 1	
 BV BOUND	C23	 1	
 BV BOUND	C24	 1	
ENDATA
