NAME	DNeg_n20k2j3
ROWS
 N 	 OBJROW
 L	 R0 
COLUMNS
 C0	 OBJROW 	-7	 R0 	5	
 C1	 OBJROW 	-83	 R0 	9	
 C2	 OBJROW 	-64	 R0 	15	
 C3	 OBJROW 	-14	 R0 	24	
 C4	 OBJROW 	-84	 R0 	26	
 C5	 OBJROW 	-39	 R0 	27	
 C6	 OBJROW 	-80	 R0 	30	
 C7	 OBJROW 	-12	 R0 	34	
 C8	 OBJROW 	-49	 R0 	37	
 C9	 OBJROW 	-18	 R0 	42	
 C10	 OBJROW 	-21	 R0 	58	
 C11	 OBJROW 	-31	 R0 	60	
 C12	 OBJROW 	-97	 R0 	66	
 C13	 OBJROW 	-2	 R0 	68	
 C14	 OBJROW 	-4	 R0 	77	
 C15	 OBJROW 	-11	 R0 	86	
 C16	 OBJROW 	-40	 R0 	89	
 C17	 OBJROW 	-15	 R0 	93	
 C18	 OBJROW 	-83	 R0 	95	
 C19	 OBJROW 	-59	 R0 	96	
RHS
 RHS	 R0 	 283	
BOUNDS
 BV BOUND	C0	 1	
 BV BOUND	C1	 1	
 BV BOUND	C2	 1	
 BV BOUND	C3	 1	
 BV BOUND	C4	 1	
 BV BOUND	C5	 1	
 BV BOUND	C6	 1	
 BV BOUND	C7	 1	
 BV BOUND	C8	 1	
 BV BOUND	C9	 1	
 BV BOUND	C10	 1	
 BV BOUND	C11	 1	
 BV BOUND	C12	 1	
 BV BOUND	C13	 1	
 BV BOUND	C14	 1	
 BV BOUND	C15	 1	
 BV BOUND	C16	 1	
 BV BOUND	C17	 1	
 BV BOUND	C18	 1	
 BV BOUND	C19	 1	
ENDATA
