NAME	DNeg_n20k5j0
ROWS
 N 	 OBJROW
 L	 R0 
COLUMNS
 C0	 OBJROW 	-69	 R0 	12	
 C1	 OBJROW 	-13	 R0 	17	
 C2	 OBJROW 	-50	 R0 	22	
 C3	 OBJROW 	-69	 R0 	35	
 C4	 OBJROW 	-9	 R0 	36	
 C5	 OBJROW 	-98	 R0 	46	
 C6	 OBJROW 	-21	 R0 	51	
 C7	 OBJROW 	-18	 R0 	54	
 C8	 OBJROW 	-16	 R0 	61	
 C9	 OBJROW 	-7	 R0 	61	
 C10	 OBJROW 	-41	 R0 	62	
 C11	 OBJROW 	-3	 R0 	66	
 C12	 OBJROW 	-22	 R0 	67	
 C13	 OBJROW 	-68	 R0 	70	
 C14	 OBJROW 	-3	 R0 	71	
 C15	 OBJROW 	-37	 R0 	73	
 C16	 OBJROW 	-71	 R0 	86	
 C17	 OBJROW 	-46	 R0 	96	
 C18	 OBJROW 	-10	 R0 	97	
 C19	 OBJROW 	-87	 R0 	97	
RHS
 RHS	 R0 	 644	
BOUNDS
 BV BOUND	C0	 1	
 BV BOUND	C1	 1	
 BV BOUND	C2	 1	
 BV BOUND	C3	 1	
 BV BOUND	C4	 1	
 BV BOUND	C5	 1	
 BV BOUND	C6	 1	
 BV BOUND	C7	 1	
 BV BOUND	C8	 1	
 BV BOUND	C9	 1	
 BV BOUND	C10	 1	
 BV BOUND	C11	 1	
 BV BOUND	C12	 1	
 BV BOUND	C13	 1	
 BV BOUND	C14	 1	
 BV BOUND	C15	 1	
 BV BOUND	C16	 1	
 BV BOUND	C17	 1	
 BV BOUND	C18	 1	
 BV BOUND	C19	 1	
ENDATA
