NAME	DNeg_n20k2j2
ROWS
 N 	 OBJROW
 L	 R0 
COLUMNS
 C0	 OBJROW 	-76	 R0 	5	
 C1	 OBJROW 	-28	 R0 	11	
 C2	 OBJROW 	-71	 R0 	12	
 C3	 OBJROW 	-41	 R0 	17	
 C4	 OBJROW 	-36	 R0 	19	
 C5	 OBJROW 	-94	 R0 	34	
 C6	 OBJROW 	-79	 R0 	35	
 C7	 OBJROW 	-11	 R0 	43	
 C8	 OBJROW 	-88	 R0 	46	
 C9	 OBJROW 	-42	 R0 	48	
 C10	 OBJROW 	-38	 R0 	51	
 C11	 OBJROW 	-74	 R0 	65	
 C12	 OBJROW 	-26	 R0 	76	
 C13	 OBJROW 	-95	 R0 	80	
 C14	 OBJROW 	-6	 R0 	82	
 C15	 OBJROW 	-59	 R0 	86	
 C16	 OBJROW 	-92	 R0 	88	
 C17	 OBJROW 	-73	 R0 	96	
 C18	 OBJROW 	-83	 R0 	97	
 C19	 OBJROW 	-17	 R0 	98	
RHS
 RHS	 R0 	 297	
BOUNDS
 BV BOUND	C0	 1	
 BV BOUND	C1	 1	
 BV BOUND	C2	 1	
 BV BOUND	C3	 1	
 BV BOUND	C4	 1	
 BV BOUND	C5	 1	
 BV BOUND	C6	 1	
 BV BOUND	C7	 1	
 BV BOUND	C8	 1	
 BV BOUND	C9	 1	
 BV BOUND	C10	 1	
 BV BOUND	C11	 1	
 BV BOUND	C12	 1	
 BV BOUND	C13	 1	
 BV BOUND	C14	 1	
 BV BOUND	C15	 1	
 BV BOUND	C16	 1	
 BV BOUND	C17	 1	
 BV BOUND	C18	 1	
 BV BOUND	C19	 1	
ENDATA
