NAME	DNeg_n25k6j8
ROWS
 N 	 OBJROW
 L	 R0 
COLUMNS
 C0	 OBJROW 	-80	 R0 	3	
 C1	 OBJROW 	-12	 R0 	5	
 C2	 OBJROW 	-17	 R0 	6	
 C3	 OBJROW 	-90	 R0 	8	
 C4	 OBJROW 	-12	 R0 	10	
 C5	 OBJROW 	-19	 R0 	12	
 C6	 OBJROW 	-93	 R0 	14	
 C7	 OBJROW 	-52	 R0 	17	
 C8	 OBJROW 	-49	 R0 	27	
 C9	 OBJROW 	-76	 R0 	29	
 C10	 OBJROW 	-8	 R0 	32	
 C11	 OBJROW 	-23	 R0 	34	
 C12	 OBJROW 	-54	 R0 	35	
 C13	 OBJROW 	-78	 R0 	36	
 C14	 OBJROW 	-3	 R0 	40	
 C15	 OBJROW 	-5	 R0 	42	
 C16	 OBJROW 	-35	 R0 	45	
 C17	 OBJROW 	-46	 R0 	46	
 C18	 OBJROW 	-80	 R0 	47	
 C19	 OBJROW 	-19	 R0 	51	
 C20	 OBJROW 	-16	 R0 	57	
 C21	 OBJROW 	-78	 R0 	70	
 C22	 OBJROW 	-2	 R0 	88	
 C23	 OBJROW 	-61	 R0 	90	
 C24	 OBJROW 	-68	 R0 	96	
RHS
 RHS	 R0 	 599	
BOUNDS
 BV BOUND	C0	 1	
 BV BOUND	C1	 1	
 BV BOUND	C2	 1	
 BV BOUND	C3	 1	
 BV BOUND	C4	 1	
 BV BOUND	C5	 1	
 BV BOUND	C6	 1	
 BV BOUND	C7	 1	
 BV BOUND	C8	 1	
 BV BOUND	C9	 1	
 BV BOUND	C10	 1	
 BV BOUND	C11	 1	
 BV BOUND	C12	 1	
 BV BOUND	C13	 1	
 BV BOUND	C14	 1	
 BV BOUND	C15	 1	
 BV BOUND	C16	 1	
 BV BOUND	C17	 1	
 BV BOUND	C18	 1	
 BV BOUND	C19	 1	
 BV BOUND	C20	 1	
 BV BOUND	C21	 1	
 BV BOUND	C22	 1	
 BV BOUND	C23	 1	
 BV BOUND	C24	 1	
ENDATA
