NAME	DNeg_n30k0j8
ROWS
 N 	 OBJROW
 L	 R0 
COLUMNS
 C0	 OBJROW 	-8	 R0 	9	
 C1	 OBJROW 	-49	 R0 	10	
 C2	 OBJROW 	-19	 R0 	11	
 C3	 OBJROW 	-51	 R0 	11	
 C4	 OBJROW 	-50	 R0 	13	
 C5	 OBJROW 	-25	 R0 	15	
 C6	 OBJROW 	-19	 R0 	18	
 C7	 OBJROW 	-10	 R0 	18	
 C8	 OBJROW 	-87	 R0 	19	
 C9	 OBJROW 	-69	 R0 	20	
 C10	 OBJROW 	-86	 R0 	22	
 C11	 OBJROW 	-14	 R0 	29	
 C12	 OBJROW 	-19	 R0 	29	
 C13	 OBJROW 	-53	 R0 	36	
 C14	 OBJROW 	-80	 R0 	37	
 C15	 OBJROW 	-97	 R0 	37	
 C16	 OBJROW 	-47	 R0 	38	
 C17	 OBJROW 	-68	 R0 	45	
 C18	 OBJROW 	-16	 R0 	49	
 C19	 OBJROW 	-73	 R0 	57	
 C20	 OBJROW 	-18	 R0 	58	
 C21	 OBJROW 	-51	 R0 	61	
 C22	 OBJROW 	-59	 R0 	66	
 C23	 OBJROW 	-33	 R0 	70	
 C24	 OBJROW 	-43	 R0 	75	
 C25	 OBJROW 	-46	 R0 	75	
 C26	 OBJROW 	-49	 R0 	79	
 C27	 OBJROW 	-82	 R0 	79	
 C28	 OBJROW 	-45	 R0 	86	
 C29	 OBJROW 	-79	 R0 	92	
RHS
 RHS	 R0 	 115	
BOUNDS
 BV BOUND	C0	 1	
 BV BOUND	C1	 1	
 BV BOUND	C2	 1	
 BV BOUND	C3	 1	
 BV BOUND	C4	 1	
 BV BOUND	C5	 1	
 BV BOUND	C6	 1	
 BV BOUND	C7	 1	
 BV BOUND	C8	 1	
 BV BOUND	C9	 1	
 BV BOUND	C10	 1	
 BV BOUND	C11	 1	
 BV BOUND	C12	 1	
 BV BOUND	C13	 1	
 BV BOUND	C14	 1	
 BV BOUND	C15	 1	
 BV BOUND	C16	 1	
 BV BOUND	C17	 1	
 BV BOUND	C18	 1	
 BV BOUND	C19	 1	
 BV BOUND	C20	 1	
 BV BOUND	C21	 1	
 BV BOUND	C22	 1	
 BV BOUND	C23	 1	
 BV BOUND	C24	 1	
 BV BOUND	C25	 1	
 BV BOUND	C26	 1	
 BV BOUND	C27	 1	
 BV BOUND	C28	 1	
 BV BOUND	C29	 1	
ENDATA
