NAME	DNeg_n30k1j7
ROWS
 N 	 OBJROW
 L	 R0 
COLUMNS
 C0	 OBJROW 	-47	 R0 	1	
 C1	 OBJROW 	-96	 R0 	2	
 C2	 OBJROW 	-63	 R0 	9	
 C3	 OBJROW 	-28	 R0 	9	
 C4	 OBJROW 	-58	 R0 	9	
 C5	 OBJROW 	-76	 R0 	13	
 C6	 OBJROW 	-24	 R0 	21	
 C7	 OBJROW 	-68	 R0 	21	
 C8	 OBJROW 	-27	 R0 	24	
 C9	 OBJROW 	-83	 R0 	27	
 C10	 OBJROW 	-82	 R0 	29	
 C11	 OBJROW 	-24	 R0 	39	
 C12	 OBJROW 	-97	 R0 	49	
 C13	 OBJROW 	-53	 R0 	50	
 C14	 OBJROW 	-37	 R0 	52	
 C15	 OBJROW 	-87	 R0 	60	
 C16	 OBJROW 	-26	 R0 	61	
 C17	 OBJROW 	-78	 R0 	64	
 C18	 OBJROW 	-16	 R0 	68	
 C19	 OBJROW 	-92	 R0 	69	
 C20	 OBJROW 	-17	 R0 	71	
 C21	 OBJROW 	-83	 R0 	71	
 C22	 OBJROW 	-97	 R0 	75	
 C23	 OBJROW 	-63	 R0 	76	
 C24	 OBJROW 	-97	 R0 	76	
 C25	 OBJROW 	-51	 R0 	82	
 C26	 OBJROW 	-61	 R0 	86	
 C27	 OBJROW 	-30	 R0 	87	
 C28	 OBJROW 	-13	 R0 	88	
 C29	 OBJROW 	-26	 R0 	93	
RHS
 RHS	 R0 	 270	
BOUNDS
 BV BOUND	C0	 1	
 BV BOUND	C1	 1	
 BV BOUND	C2	 1	
 BV BOUND	C3	 1	
 BV BOUND	C4	 1	
 BV BOUND	C5	 1	
 BV BOUND	C6	 1	
 BV BOUND	C7	 1	
 BV BOUND	C8	 1	
 BV BOUND	C9	 1	
 BV BOUND	C10	 1	
 BV BOUND	C11	 1	
 BV BOUND	C12	 1	
 BV BOUND	C13	 1	
 BV BOUND	C14	 1	
 BV BOUND	C15	 1	
 BV BOUND	C16	 1	
 BV BOUND	C17	 1	
 BV BOUND	C18	 1	
 BV BOUND	C19	 1	
 BV BOUND	C20	 1	
 BV BOUND	C21	 1	
 BV BOUND	C22	 1	
 BV BOUND	C23	 1	
 BV BOUND	C24	 1	
 BV BOUND	C25	 1	
 BV BOUND	C26	 1	
 BV BOUND	C27	 1	
 BV BOUND	C28	 1	
 BV BOUND	C29	 1	
ENDATA
