NAME	DNeg_n25k2j9
ROWS
 N 	 OBJROW
 L	 R0 
COLUMNS
 C0	 OBJROW 	-91	 R0 	1	
 C1	 OBJROW 	-53	 R0 	7	
 C2	 OBJROW 	-47	 R0 	10	
 C3	 OBJROW 	-19	 R0 	11	
 C4	 OBJROW 	-96	 R0 	15	
 C5	 OBJROW 	-79	 R0 	17	
 C6	 OBJROW 	-36	 R0 	19	
 C7	 OBJROW 	-83	 R0 	24	
 C8	 OBJROW 	-92	 R0 	31	
 C9	 OBJROW 	-20	 R0 	34	
 C10	 OBJROW 	-39	 R0 	34	
 C11	 OBJROW 	-37	 R0 	35	
 C12	 OBJROW 	-1	 R0 	36	
 C13	 OBJROW 	-26	 R0 	47	
 C14	 OBJROW 	-95	 R0 	53	
 C15	 OBJROW 	-65	 R0 	55	
 C16	 OBJROW 	-82	 R0 	55	
 C17	 OBJROW 	-40	 R0 	59	
 C18	 OBJROW 	-9	 R0 	61	
 C19	 OBJROW 	-54	 R0 	83	
 C20	 OBJROW 	-81	 R0 	83	
 C21	 OBJROW 	-19	 R0 	84	
 C22	 OBJROW 	-31	 R0 	93	
 C23	 OBJROW 	-98	 R0 	95	
 C24	 OBJROW 	-17	 R0 	95	
RHS
 RHS	 R0 	 311	
BOUNDS
 BV BOUND	C0	 1	
 BV BOUND	C1	 1	
 BV BOUND	C2	 1	
 BV BOUND	C3	 1	
 BV BOUND	C4	 1	
 BV BOUND	C5	 1	
 BV BOUND	C6	 1	
 BV BOUND	C7	 1	
 BV BOUND	C8	 1	
 BV BOUND	C9	 1	
 BV BOUND	C10	 1	
 BV BOUND	C11	 1	
 BV BOUND	C12	 1	
 BV BOUND	C13	 1	
 BV BOUND	C14	 1	
 BV BOUND	C15	 1	
 BV BOUND	C16	 1	
 BV BOUND	C17	 1	
 BV BOUND	C18	 1	
 BV BOUND	C19	 1	
 BV BOUND	C20	 1	
 BV BOUND	C21	 1	
 BV BOUND	C22	 1	
 BV BOUND	C23	 1	
 BV BOUND	C24	 1	
ENDATA
