NAME	DNeg_n20k5j5
ROWS
 N 	 OBJROW
 L	 R0 
COLUMNS
 C0	 OBJROW 	-51	 R0 	2	
 C1	 OBJROW 	-30	 R0 	7	
 C2	 OBJROW 	-37	 R0 	9	
 C3	 OBJROW 	-89	 R0 	10	
 C4	 OBJROW 	-30	 R0 	23	
 C5	 OBJROW 	-34	 R0 	23	
 C6	 OBJROW 	-92	 R0 	25	
 C7	 OBJROW 	-29	 R0 	27	
 C8	 OBJROW 	-18	 R0 	37	
 C9	 OBJROW 	-50	 R0 	38	
 C10	 OBJROW 	-71	 R0 	40	
 C11	 OBJROW 	-30	 R0 	41	
 C12	 OBJROW 	-55	 R0 	42	
 C13	 OBJROW 	-78	 R0 	50	
 C14	 OBJROW 	-51	 R0 	58	
 C15	 OBJROW 	-72	 R0 	69	
 C16	 OBJROW 	-62	 R0 	70	
 C17	 OBJROW 	-7	 R0 	70	
 C18	 OBJROW 	-94	 R0 	83	
 C19	 OBJROW 	-69	 R0 	95	
RHS
 RHS	 R0 	 447	
BOUNDS
 BV BOUND	C0	 1	
 BV BOUND	C1	 1	
 BV BOUND	C2	 1	
 BV BOUND	C3	 1	
 BV BOUND	C4	 1	
 BV BOUND	C5	 1	
 BV BOUND	C6	 1	
 BV BOUND	C7	 1	
 BV BOUND	C8	 1	
 BV BOUND	C9	 1	
 BV BOUND	C10	 1	
 BV BOUND	C11	 1	
 BV BOUND	C12	 1	
 BV BOUND	C13	 1	
 BV BOUND	C14	 1	
 BV BOUND	C15	 1	
 BV BOUND	C16	 1	
 BV BOUND	C17	 1	
 BV BOUND	C18	 1	
 BV BOUND	C19	 1	
ENDATA
