NAME	DNeg_n30k6j8
ROWS
 N 	 OBJROW
 L	 R0 
COLUMNS
 C0	 OBJROW 	-98	 R0 	3	
 C1	 OBJROW 	-45	 R0 	9	
 C2	 OBJROW 	-42	 R0 	11	
 C3	 OBJROW 	-7	 R0 	26	
 C4	 OBJROW 	-76	 R0 	27	
 C5	 OBJROW 	-5	 R0 	32	
 C6	 OBJROW 	-63	 R0 	35	
 C7	 OBJROW 	-34	 R0 	35	
 C8	 OBJROW 	-67	 R0 	37	
 C9	 OBJROW 	-69	 R0 	37	
 C10	 OBJROW 	-50	 R0 	44	
 C11	 OBJROW 	-49	 R0 	46	
 C12	 OBJROW 	-3	 R0 	46	
 C13	 OBJROW 	-58	 R0 	49	
 C14	 OBJROW 	-72	 R0 	49	
 C15	 OBJROW 	-86	 R0 	57	
 C16	 OBJROW 	-69	 R0 	62	
 C17	 OBJROW 	-7	 R0 	62	
 C18	 OBJROW 	-95	 R0 	63	
 C19	 OBJROW 	-47	 R0 	64	
 C20	 OBJROW 	-84	 R0 	71	
 C21	 OBJROW 	-67	 R0 	74	
 C22	 OBJROW 	-76	 R0 	74	
 C23	 OBJROW 	-14	 R0 	76	
 C24	 OBJROW 	-98	 R0 	78	
 C25	 OBJROW 	-15	 R0 	80	
 C26	 OBJROW 	-80	 R0 	85	
 C27	 OBJROW 	-37	 R0 	90	
 C28	 OBJROW 	-21	 R0 	91	
 C29	 OBJROW 	-54	 R0 	93	
RHS
 RHS	 R0 	 1022	
BOUNDS
 BV BOUND	C0	 1	
 BV BOUND	C1	 1	
 BV BOUND	C2	 1	
 BV BOUND	C3	 1	
 BV BOUND	C4	 1	
 BV BOUND	C5	 1	
 BV BOUND	C6	 1	
 BV BOUND	C7	 1	
 BV BOUND	C8	 1	
 BV BOUND	C9	 1	
 BV BOUND	C10	 1	
 BV BOUND	C11	 1	
 BV BOUND	C12	 1	
 BV BOUND	C13	 1	
 BV BOUND	C14	 1	
 BV BOUND	C15	 1	
 BV BOUND	C16	 1	
 BV BOUND	C17	 1	
 BV BOUND	C18	 1	
 BV BOUND	C19	 1	
 BV BOUND	C20	 1	
 BV BOUND	C21	 1	
 BV BOUND	C22	 1	
 BV BOUND	C23	 1	
 BV BOUND	C24	 1	
 BV BOUND	C25	 1	
 BV BOUND	C26	 1	
 BV BOUND	C27	 1	
 BV BOUND	C28	 1	
 BV BOUND	C29	 1	
ENDATA
