NAME	DNeg_n25k3j7
ROWS
 N 	 OBJROW
 L	 R0 
COLUMNS
 C0	 OBJROW 	-37	 R0 	3	
 C1	 OBJROW 	-57	 R0 	4	
 C2	 OBJROW 	-66	 R0 	5	
 C3	 OBJROW 	-39	 R0 	5	
 C4	 OBJROW 	-15	 R0 	6	
 C5	 OBJROW 	-11	 R0 	7	
 C6	 OBJROW 	-95	 R0 	9	
 C7	 OBJROW 	-74	 R0 	14	
 C8	 OBJROW 	-18	 R0 	19	
 C9	 OBJROW 	-65	 R0 	20	
 C10	 OBJROW 	-63	 R0 	20	
 C11	 OBJROW 	-8	 R0 	31	
 C12	 OBJROW 	-81	 R0 	35	
 C13	 OBJROW 	-89	 R0 	43	
 C14	 OBJROW 	-26	 R0 	46	
 C15	 OBJROW 	-70	 R0 	49	
 C16	 OBJROW 	-63	 R0 	50	
 C17	 OBJROW 	-51	 R0 	50	
 C18	 OBJROW 	-28	 R0 	57	
 C19	 OBJROW 	-93	 R0 	57	
 C20	 OBJROW 	-52	 R0 	59	
 C21	 OBJROW 	-67	 R0 	61	
 C22	 OBJROW 	-38	 R0 	74	
 C23	 OBJROW 	-10	 R0 	79	
 C24	 OBJROW 	-89	 R0 	86	
RHS
 RHS	 R0 	 324	
BOUNDS
 BV BOUND	C0	 1	
 BV BOUND	C1	 1	
 BV BOUND	C2	 1	
 BV BOUND	C3	 1	
 BV BOUND	C4	 1	
 BV BOUND	C5	 1	
 BV BOUND	C6	 1	
 BV BOUND	C7	 1	
 BV BOUND	C8	 1	
 BV BOUND	C9	 1	
 BV BOUND	C10	 1	
 BV BOUND	C11	 1	
 BV BOUND	C12	 1	
 BV BOUND	C13	 1	
 BV BOUND	C14	 1	
 BV BOUND	C15	 1	
 BV BOUND	C16	 1	
 BV BOUND	C17	 1	
 BV BOUND	C18	 1	
 BV BOUND	C19	 1	
 BV BOUND	C20	 1	
 BV BOUND	C21	 1	
 BV BOUND	C22	 1	
 BV BOUND	C23	 1	
 BV BOUND	C24	 1	
ENDATA
