NAME	DNeg_n25k1j2
ROWS
 N 	 OBJROW
 L	 R0 
COLUMNS
 C0	 OBJROW 	-74	 R0 	1	
 C1	 OBJROW 	-98	 R0 	9	
 C2	 OBJROW 	-64	 R0 	16	
 C3	 OBJROW 	-88	 R0 	17	
 C4	 OBJROW 	-17	 R0 	17	
 C5	 OBJROW 	-81	 R0 	22	
 C6	 OBJROW 	-9	 R0 	46	
 C7	 OBJROW 	-29	 R0 	46	
 C8	 OBJROW 	-43	 R0 	49	
 C9	 OBJROW 	-12	 R0 	55	
 C10	 OBJROW 	-87	 R0 	57	
 C11	 OBJROW 	-6	 R0 	57	
 C12	 OBJROW 	-90	 R0 	59	
 C13	 OBJROW 	-83	 R0 	68	
 C14	 OBJROW 	-7	 R0 	68	
 C15	 OBJROW 	-3	 R0 	69	
 C16	 OBJROW 	-92	 R0 	70	
 C17	 OBJROW 	-74	 R0 	70	
 C18	 OBJROW 	-79	 R0 	70	
 C19	 OBJROW 	-46	 R0 	77	
 C20	 OBJROW 	-43	 R0 	85	
 C21	 OBJROW 	-44	 R0 	88	
 C22	 OBJROW 	-20	 R0 	88	
 C23	 OBJROW 	-93	 R0 	93	
 C24	 OBJROW 	-44	 R0 	94	
RHS
 RHS	 R0 	 253	
BOUNDS
 BV BOUND	C0	 1	
 BV BOUND	C1	 1	
 BV BOUND	C2	 1	
 BV BOUND	C3	 1	
 BV BOUND	C4	 1	
 BV BOUND	C5	 1	
 BV BOUND	C6	 1	
 BV BOUND	C7	 1	
 BV BOUND	C8	 1	
 BV BOUND	C9	 1	
 BV BOUND	C10	 1	
 BV BOUND	C11	 1	
 BV BOUND	C12	 1	
 BV BOUND	C13	 1	
 BV BOUND	C14	 1	
 BV BOUND	C15	 1	
 BV BOUND	C16	 1	
 BV BOUND	C17	 1	
 BV BOUND	C18	 1	
 BV BOUND	C19	 1	
 BV BOUND	C20	 1	
 BV BOUND	C21	 1	
 BV BOUND	C22	 1	
 BV BOUND	C23	 1	
 BV BOUND	C24	 1	
ENDATA
