NAME	DNeg_n25k6j6
ROWS
 N 	 OBJROW
 L	 R0 
COLUMNS
 C0	 OBJROW 	-10	 R0 	1	
 C1	 OBJROW 	-97	 R0 	4	
 C2	 OBJROW 	-1	 R0 	5	
 C3	 OBJROW 	-86	 R0 	6	
 C4	 OBJROW 	-87	 R0 	11	
 C5	 OBJROW 	-87	 R0 	13	
 C6	 OBJROW 	-5	 R0 	16	
 C7	 OBJROW 	-66	 R0 	31	
 C8	 OBJROW 	-76	 R0 	33	
 C9	 OBJROW 	-40	 R0 	35	
 C10	 OBJROW 	-35	 R0 	38	
 C11	 OBJROW 	-22	 R0 	40	
 C12	 OBJROW 	-27	 R0 	42	
 C13	 OBJROW 	-8	 R0 	53	
 C14	 OBJROW 	-61	 R0 	56	
 C15	 OBJROW 	-38	 R0 	62	
 C16	 OBJROW 	-66	 R0 	65	
 C17	 OBJROW 	-73	 R0 	68	
 C18	 OBJROW 	-59	 R0 	70	
 C19	 OBJROW 	-84	 R0 	75	
 C20	 OBJROW 	-61	 R0 	76	
 C21	 OBJROW 	-85	 R0 	79	
 C22	 OBJROW 	-3	 R0 	81	
 C23	 OBJROW 	-59	 R0 	81	
 C24	 OBJROW 	-52	 R0 	85	
RHS
 RHS	 R0 	 717	
BOUNDS
 BV BOUND	C0	 1	
 BV BOUND	C1	 1	
 BV BOUND	C2	 1	
 BV BOUND	C3	 1	
 BV BOUND	C4	 1	
 BV BOUND	C5	 1	
 BV BOUND	C6	 1	
 BV BOUND	C7	 1	
 BV BOUND	C8	 1	
 BV BOUND	C9	 1	
 BV BOUND	C10	 1	
 BV BOUND	C11	 1	
 BV BOUND	C12	 1	
 BV BOUND	C13	 1	
 BV BOUND	C14	 1	
 BV BOUND	C15	 1	
 BV BOUND	C16	 1	
 BV BOUND	C17	 1	
 BV BOUND	C18	 1	
 BV BOUND	C19	 1	
 BV BOUND	C20	 1	
 BV BOUND	C21	 1	
 BV BOUND	C22	 1	
 BV BOUND	C23	 1	
 BV BOUND	C24	 1	
ENDATA
