NAME	DNeg_n20k2j1
ROWS
 N 	 OBJROW
 L	 R0 
COLUMNS
 C0	 OBJROW 	-64	 R0 	1	
 C1	 OBJROW 	-27	 R0 	5	
 C2	 OBJROW 	-34	 R0 	15	
 C3	 OBJROW 	-19	 R0 	16	
 C4	 OBJROW 	-55	 R0 	21	
 C5	 OBJROW 	-88	 R0 	24	
 C6	 OBJROW 	-2	 R0 	25	
 C7	 OBJROW 	-65	 R0 	29	
 C8	 OBJROW 	-30	 R0 	31	
 C9	 OBJROW 	-92	 R0 	43	
 C10	 OBJROW 	-42	 R0 	47	
 C11	 OBJROW 	-32	 R0 	48	
 C12	 OBJROW 	-54	 R0 	57	
 C13	 OBJROW 	-79	 R0 	61	
 C14	 OBJROW 	-13	 R0 	74	
 C15	 OBJROW 	-38	 R0 	82	
 C16	 OBJROW 	-44	 R0 	86	
 C17	 OBJROW 	-93	 R0 	92	
 C18	 OBJROW 	-18	 R0 	96	
 C19	 OBJROW 	-49	 R0 	96	
RHS
 RHS	 R0 	 259	
BOUNDS
 BV BOUND	C0	 1	
 BV BOUND	C1	 1	
 BV BOUND	C2	 1	
 BV BOUND	C3	 1	
 BV BOUND	C4	 1	
 BV BOUND	C5	 1	
 BV BOUND	C6	 1	
 BV BOUND	C7	 1	
 BV BOUND	C8	 1	
 BV BOUND	C9	 1	
 BV BOUND	C10	 1	
 BV BOUND	C11	 1	
 BV BOUND	C12	 1	
 BV BOUND	C13	 1	
 BV BOUND	C14	 1	
 BV BOUND	C15	 1	
 BV BOUND	C16	 1	
 BV BOUND	C17	 1	
 BV BOUND	C18	 1	
 BV BOUND	C19	 1	
ENDATA
