NAME	DNeg_n20k5j3
ROWS
 N 	 OBJROW
 L	 R0 
COLUMNS
 C0	 OBJROW 	-46	 R0 	14	
 C1	 OBJROW 	-56	 R0 	31	
 C2	 OBJROW 	-95	 R0 	37	
 C3	 OBJROW 	-84	 R0 	37	
 C4	 OBJROW 	-60	 R0 	42	
 C5	 OBJROW 	-62	 R0 	42	
 C6	 OBJROW 	-90	 R0 	42	
 C7	 OBJROW 	-89	 R0 	43	
 C8	 OBJROW 	-95	 R0 	46	
 C9	 OBJROW 	-68	 R0 	58	
 C10	 OBJROW 	-44	 R0 	59	
 C11	 OBJROW 	-82	 R0 	66	
 C12	 OBJROW 	-35	 R0 	67	
 C13	 OBJROW 	-82	 R0 	71	
 C14	 OBJROW 	-32	 R0 	76	
 C15	 OBJROW 	-40	 R0 	76	
 C16	 OBJROW 	-18	 R0 	79	
 C17	 OBJROW 	-94	 R0 	80	
 C18	 OBJROW 	-59	 R0 	93	
 C19	 OBJROW 	-51	 R0 	94	
RHS
 RHS	 R0 	 629	
BOUNDS
 BV BOUND	C0	 1	
 BV BOUND	C1	 1	
 BV BOUND	C2	 1	
 BV BOUND	C3	 1	
 BV BOUND	C4	 1	
 BV BOUND	C5	 1	
 BV BOUND	C6	 1	
 BV BOUND	C7	 1	
 BV BOUND	C8	 1	
 BV BOUND	C9	 1	
 BV BOUND	C10	 1	
 BV BOUND	C11	 1	
 BV BOUND	C12	 1	
 BV BOUND	C13	 1	
 BV BOUND	C14	 1	
 BV BOUND	C15	 1	
 BV BOUND	C16	 1	
 BV BOUND	C17	 1	
 BV BOUND	C18	 1	
 BV BOUND	C19	 1	
ENDATA
