NAME	DNeg_n30k1j6
ROWS
 N 	 OBJROW
 L	 R0 
COLUMNS
 C0	 OBJROW 	-21	 R0 	4	
 C1	 OBJROW 	-52	 R0 	6	
 C2	 OBJROW 	-52	 R0 	11	
 C3	 OBJROW 	-48	 R0 	15	
 C4	 OBJROW 	-33	 R0 	25	
 C5	 OBJROW 	-31	 R0 	29	
 C6	 OBJROW 	-54	 R0 	29	
 C7	 OBJROW 	-80	 R0 	29	
 C8	 OBJROW 	-95	 R0 	37	
 C9	 OBJROW 	-28	 R0 	41	
 C10	 OBJROW 	-86	 R0 	42	
 C11	 OBJROW 	-72	 R0 	44	
 C12	 OBJROW 	-82	 R0 	48	
 C13	 OBJROW 	-95	 R0 	48	
 C14	 OBJROW 	-88	 R0 	57	
 C15	 OBJROW 	-27	 R0 	58	
 C16	 OBJROW 	-29	 R0 	60	
 C17	 OBJROW 	-72	 R0 	61	
 C18	 OBJROW 	-66	 R0 	67	
 C19	 OBJROW 	-14	 R0 	69	
 C20	 OBJROW 	-22	 R0 	69	
 C21	 OBJROW 	-27	 R0 	70	
 C22	 OBJROW 	-24	 R0 	73	
 C23	 OBJROW 	-15	 R0 	81	
 C24	 OBJROW 	-98	 R0 	88	
 C25	 OBJROW 	-1	 R0 	88	
 C26	 OBJROW 	-23	 R0 	89	
 C27	 OBJROW 	-34	 R0 	95	
 C28	 OBJROW 	-84	 R0 	97	
 C29	 OBJROW 	-87	 R0 	98	
RHS
 RHS	 R0 	 296	
BOUNDS
 BV BOUND	C0	 1	
 BV BOUND	C1	 1	
 BV BOUND	C2	 1	
 BV BOUND	C3	 1	
 BV BOUND	C4	 1	
 BV BOUND	C5	 1	
 BV BOUND	C6	 1	
 BV BOUND	C7	 1	
 BV BOUND	C8	 1	
 BV BOUND	C9	 1	
 BV BOUND	C10	 1	
 BV BOUND	C11	 1	
 BV BOUND	C12	 1	
 BV BOUND	C13	 1	
 BV BOUND	C14	 1	
 BV BOUND	C15	 1	
 BV BOUND	C16	 1	
 BV BOUND	C17	 1	
 BV BOUND	C18	 1	
 BV BOUND	C19	 1	
 BV BOUND	C20	 1	
 BV BOUND	C21	 1	
 BV BOUND	C22	 1	
 BV BOUND	C23	 1	
 BV BOUND	C24	 1	
 BV BOUND	C25	 1	
 BV BOUND	C26	 1	
 BV BOUND	C27	 1	
 BV BOUND	C28	 1	
 BV BOUND	C29	 1	
ENDATA
