NAME	DNeg_n30k1j5
ROWS
 N 	 OBJROW
 L	 R0 
COLUMNS
 C0	 OBJROW 	-99	 R0 	4	
 C1	 OBJROW 	-50	 R0 	9	
 C2	 OBJROW 	-63	 R0 	13	
 C3	 OBJROW 	-10	 R0 	13	
 C4	 OBJROW 	-1	 R0 	17	
 C5	 OBJROW 	-39	 R0 	19	
 C6	 OBJROW 	-21	 R0 	23	
 C7	 OBJROW 	-38	 R0 	24	
 C8	 OBJROW 	-91	 R0 	25	
 C9	 OBJROW 	-24	 R0 	29	
 C10	 OBJROW 	-67	 R0 	29	
 C11	 OBJROW 	-95	 R0 	31	
 C12	 OBJROW 	-59	 R0 	39	
 C13	 OBJROW 	-58	 R0 	45	
 C14	 OBJROW 	-6	 R0 	49	
 C15	 OBJROW 	-79	 R0 	49	
 C16	 OBJROW 	-59	 R0 	56	
 C17	 OBJROW 	-37	 R0 	58	
 C18	 OBJROW 	-94	 R0 	60	
 C19	 OBJROW 	-49	 R0 	64	
 C20	 OBJROW 	-69	 R0 	64	
 C21	 OBJROW 	-31	 R0 	66	
 C22	 OBJROW 	-89	 R0 	69	
 C23	 OBJROW 	-97	 R0 	78	
 C24	 OBJROW 	-15	 R0 	82	
 C25	 OBJROW 	-11	 R0 	83	
 C26	 OBJROW 	-8	 R0 	91	
 C27	 OBJROW 	-14	 R0 	93	
 C28	 OBJROW 	-68	 R0 	94	
 C29	 OBJROW 	-53	 R0 	96	
RHS
 RHS	 R0 	 268	
BOUNDS
 BV BOUND	C0	 1	
 BV BOUND	C1	 1	
 BV BOUND	C2	 1	
 BV BOUND	C3	 1	
 BV BOUND	C4	 1	
 BV BOUND	C5	 1	
 BV BOUND	C6	 1	
 BV BOUND	C7	 1	
 BV BOUND	C8	 1	
 BV BOUND	C9	 1	
 BV BOUND	C10	 1	
 BV BOUND	C11	 1	
 BV BOUND	C12	 1	
 BV BOUND	C13	 1	
 BV BOUND	C14	 1	
 BV BOUND	C15	 1	
 BV BOUND	C16	 1	
 BV BOUND	C17	 1	
 BV BOUND	C18	 1	
 BV BOUND	C19	 1	
 BV BOUND	C20	 1	
 BV BOUND	C21	 1	
 BV BOUND	C22	 1	
 BV BOUND	C23	 1	
 BV BOUND	C24	 1	
 BV BOUND	C25	 1	
 BV BOUND	C26	 1	
 BV BOUND	C27	 1	
 BV BOUND	C28	 1	
 BV BOUND	C29	 1	
ENDATA
