NAME	DNeg_n25k8j1
ROWS
 N 	 OBJROW
 L	 R0 
COLUMNS
 C0	 OBJROW 	-6	 R0 	3	
 C1	 OBJROW 	-8	 R0 	3	
 C2	 OBJROW 	-79	 R0 	5	
 C3	 OBJROW 	-99	 R0 	9	
 C4	 OBJROW 	-36	 R0 	13	
 C5	 OBJROW 	-25	 R0 	14	
 C6	 OBJROW 	-30	 R0 	20	
 C7	 OBJROW 	-88	 R0 	22	
 C8	 OBJROW 	-76	 R0 	28	
 C9	 OBJROW 	-71	 R0 	29	
 C10	 OBJROW 	-94	 R0 	37	
 C11	 OBJROW 	-87	 R0 	40	
 C12	 OBJROW 	-50	 R0 	58	
 C13	 OBJROW 	-99	 R0 	59	
 C14	 OBJROW 	-32	 R0 	64	
 C15	 OBJROW 	-90	 R0 	65	
 C16	 OBJROW 	-86	 R0 	69	
 C17	 OBJROW 	-56	 R0 	72	
 C18	 OBJROW 	-37	 R0 	87	
 C19	 OBJROW 	-67	 R0 	91	
 C20	 OBJROW 	-83	 R0 	92	
 C21	 OBJROW 	-84	 R0 	94	
 C22	 OBJROW 	-44	 R0 	94	
 C23	 OBJROW 	-94	 R0 	96	
 C24	 OBJROW 	-11	 R0 	99	
RHS
 RHS	 R0 	 1034	
BOUNDS
 BV BOUND	C0	 1	
 BV BOUND	C1	 1	
 BV BOUND	C2	 1	
 BV BOUND	C3	 1	
 BV BOUND	C4	 1	
 BV BOUND	C5	 1	
 BV BOUND	C6	 1	
 BV BOUND	C7	 1	
 BV BOUND	C8	 1	
 BV BOUND	C9	 1	
 BV BOUND	C10	 1	
 BV BOUND	C11	 1	
 BV BOUND	C12	 1	
 BV BOUND	C13	 1	
 BV BOUND	C14	 1	
 BV BOUND	C15	 1	
 BV BOUND	C16	 1	
 BV BOUND	C17	 1	
 BV BOUND	C18	 1	
 BV BOUND	C19	 1	
 BV BOUND	C20	 1	
 BV BOUND	C21	 1	
 BV BOUND	C22	 1	
 BV BOUND	C23	 1	
 BV BOUND	C24	 1	
ENDATA
