NAME	DNeg_n20k3j8
ROWS
 N 	 OBJROW
 L	 R0 
COLUMNS
 C0	 OBJROW 	-66	 R0 	4	
 C1	 OBJROW 	-5	 R0 	6	
 C2	 OBJROW 	-69	 R0 	11	
 C3	 OBJROW 	-88	 R0 	18	
 C4	 OBJROW 	-9	 R0 	20	
 C5	 OBJROW 	-42	 R0 	25	
 C6	 OBJROW 	-77	 R0 	28	
 C7	 OBJROW 	-96	 R0 	33	
 C8	 OBJROW 	-29	 R0 	33	
 C9	 OBJROW 	-90	 R0 	36	
 C10	 OBJROW 	-19	 R0 	40	
 C11	 OBJROW 	-83	 R0 	50	
 C12	 OBJROW 	-72	 R0 	65	
 C13	 OBJROW 	-90	 R0 	77	
 C14	 OBJROW 	-11	 R0 	85	
 C15	 OBJROW 	-6	 R0 	86	
 C16	 OBJROW 	-54	 R0 	86	
 C17	 OBJROW 	-58	 R0 	87	
 C18	 OBJROW 	-38	 R0 	92	
 C19	 OBJROW 	-98	 R0 	95	
RHS
 RHS	 R0 	 356	
BOUNDS
 BV BOUND	C0	 1	
 BV BOUND	C1	 1	
 BV BOUND	C2	 1	
 BV BOUND	C3	 1	
 BV BOUND	C4	 1	
 BV BOUND	C5	 1	
 BV BOUND	C6	 1	
 BV BOUND	C7	 1	
 BV BOUND	C8	 1	
 BV BOUND	C9	 1	
 BV BOUND	C10	 1	
 BV BOUND	C11	 1	
 BV BOUND	C12	 1	
 BV BOUND	C13	 1	
 BV BOUND	C14	 1	
 BV BOUND	C15	 1	
 BV BOUND	C16	 1	
 BV BOUND	C17	 1	
 BV BOUND	C18	 1	
 BV BOUND	C19	 1	
ENDATA
