NAME	DNeg_n20k1j4
ROWS
 N 	 OBJROW
 L	 R0 
COLUMNS
 C0	 OBJROW 	-93	 R0 	5	
 C1	 OBJROW 	-51	 R0 	7	
 C2	 OBJROW 	-19	 R0 	8	
 C3	 OBJROW 	-41	 R0 	10	
 C4	 OBJROW 	-55	 R0 	28	
 C5	 OBJROW 	-85	 R0 	31	
 C6	 OBJROW 	-90	 R0 	32	
 C7	 OBJROW 	-86	 R0 	33	
 C8	 OBJROW 	-29	 R0 	39	
 C9	 OBJROW 	-26	 R0 	42	
 C10	 OBJROW 	-37	 R0 	60	
 C11	 OBJROW 	-95	 R0 	67	
 C12	 OBJROW 	-15	 R0 	71	
 C13	 OBJROW 	-33	 R0 	77	
 C14	 OBJROW 	-81	 R0 	80	
 C15	 OBJROW 	-17	 R0 	83	
 C16	 OBJROW 	-95	 R0 	84	
 C17	 OBJROW 	-63	 R0 	93	
 C18	 OBJROW 	-60	 R0 	94	
 C19	 OBJROW 	-8	 R0 	99	
RHS
 RHS	 R0 	 190	
BOUNDS
 BV BOUND	C0	 1	
 BV BOUND	C1	 1	
 BV BOUND	C2	 1	
 BV BOUND	C3	 1	
 BV BOUND	C4	 1	
 BV BOUND	C5	 1	
 BV BOUND	C6	 1	
 BV BOUND	C7	 1	
 BV BOUND	C8	 1	
 BV BOUND	C9	 1	
 BV BOUND	C10	 1	
 BV BOUND	C11	 1	
 BV BOUND	C12	 1	
 BV BOUND	C13	 1	
 BV BOUND	C14	 1	
 BV BOUND	C15	 1	
 BV BOUND	C16	 1	
 BV BOUND	C17	 1	
 BV BOUND	C18	 1	
 BV BOUND	C19	 1	
ENDATA
