NAME	DNeg_n15k2j6
ROWS
 N 	 OBJROW
 L	 R0 
COLUMNS
 C0	 OBJROW 	-57	 R0 	2	
 C1	 OBJROW 	-63	 R0 	6	
 C2	 OBJROW 	-26	 R0 	24	
 C3	 OBJROW 	-71	 R0 	26	
 C4	 OBJROW 	-53	 R0 	43	
 C5	 OBJROW 	-52	 R0 	45	
 C6	 OBJROW 	-66	 R0 	55	
 C7	 OBJROW 	-12	 R0 	63	
 C8	 OBJROW 	-47	 R0 	77	
 C9	 OBJROW 	-32	 R0 	81	
 C10	 OBJROW 	-60	 R0 	82	
 C11	 OBJROW 	-25	 R0 	85	
 C12	 OBJROW 	-87	 R0 	96	
 C13	 OBJROW 	-89	 R0 	96	
 C14	 OBJROW 	-18	 R0 	99	
RHS
 RHS	 R0 	 240	
BOUNDS
 BV BOUND	C0	 1	
 BV BOUND	C1	 1	
 BV BOUND	C2	 1	
 BV BOUND	C3	 1	
 BV BOUND	C4	 1	
 BV BOUND	C5	 1	
 BV BOUND	C6	 1	
 BV BOUND	C7	 1	
 BV BOUND	C8	 1	
 BV BOUND	C9	 1	
 BV BOUND	C10	 1	
 BV BOUND	C11	 1	
 BV BOUND	C12	 1	
 BV BOUND	C13	 1	
 BV BOUND	C14	 1	
ENDATA
