NAME	DNeg_n15k5j5
ROWS
 N 	 OBJROW
 L	 R0 
COLUMNS
 C0	 OBJROW 	-90	 R0 	10	
 C1	 OBJROW 	-57	 R0 	15	
 C2	 OBJROW 	-9	 R0 	19	
 C3	 OBJROW 	-26	 R0 	21	
 C4	 OBJROW 	-91	 R0 	25	
 C5	 OBJROW 	-36	 R0 	26	
 C6	 OBJROW 	-14	 R0 	26	
 C7	 OBJROW 	-80	 R0 	28	
 C8	 OBJROW 	-18	 R0 	35	
 C9	 OBJROW 	-80	 R0 	46	
 C10	 OBJROW 	-1	 R0 	54	
 C11	 OBJROW 	-11	 R0 	54	
 C12	 OBJROW 	-23	 R0 	63	
 C13	 OBJROW 	-27	 R0 	92	
 C14	 OBJROW 	-58	 R0 	93	
RHS
 RHS	 R0 	 332	
BOUNDS
 BV BOUND	C0	 1	
 BV BOUND	C1	 1	
 BV BOUND	C2	 1	
 BV BOUND	C3	 1	
 BV BOUND	C4	 1	
 BV BOUND	C5	 1	
 BV BOUND	C6	 1	
 BV BOUND	C7	 1	
 BV BOUND	C8	 1	
 BV BOUND	C9	 1	
 BV BOUND	C10	 1	
 BV BOUND	C11	 1	
 BV BOUND	C12	 1	
 BV BOUND	C13	 1	
 BV BOUND	C14	 1	
ENDATA
