NAME	DNeg_n15k4j1
ROWS
 N 	 OBJROW
 L	 R0 
COLUMNS
 C0	 OBJROW 	-38	 R0 	1	
 C1	 OBJROW 	-75	 R0 	8	
 C2	 OBJROW 	-94	 R0 	16	
 C3	 OBJROW 	-60	 R0 	17	
 C4	 OBJROW 	-52	 R0 	24	
 C5	 OBJROW 	-4	 R0 	25	
 C6	 OBJROW 	-83	 R0 	27	
 C7	 OBJROW 	-69	 R0 	28	
 C8	 OBJROW 	-84	 R0 	39	
 C9	 OBJROW 	-55	 R0 	47	
 C10	 OBJROW 	-53	 R0 	57	
 C11	 OBJROW 	-94	 R0 	68	
 C12	 OBJROW 	-92	 R0 	86	
 C13	 OBJROW 	-23	 R0 	87	
 C14	 OBJROW 	-15	 R0 	90	
RHS
 RHS	 R0 	 282	
BOUNDS
 BV BOUND	C0	 1	
 BV BOUND	C1	 1	
 BV BOUND	C2	 1	
 BV BOUND	C3	 1	
 BV BOUND	C4	 1	
 BV BOUND	C5	 1	
 BV BOUND	C6	 1	
 BV BOUND	C7	 1	
 BV BOUND	C8	 1	
 BV BOUND	C9	 1	
 BV BOUND	C10	 1	
 BV BOUND	C11	 1	
 BV BOUND	C12	 1	
 BV BOUND	C13	 1	
 BV BOUND	C14	 1	
ENDATA
