NAME	DNeg_n15k3j0
ROWS
 N 	 OBJROW
 L	 R0 
COLUMNS
 C0	 OBJROW 	-97	 R0 	7	
 C1	 OBJROW 	-40	 R0 	15	
 C2	 OBJROW 	-91	 R0 	19	
 C3	 OBJROW 	-84	 R0 	22	
 C4	 OBJROW 	-82	 R0 	30	
 C5	 OBJROW 	-60	 R0 	31	
 C6	 OBJROW 	-93	 R0 	52	
 C7	 OBJROW 	-24	 R0 	60	
 C8	 OBJROW 	-39	 R0 	61	
 C9	 OBJROW 	-91	 R0 	64	
 C10	 OBJROW 	-9	 R0 	69	
 C11	 OBJROW 	-7	 R0 	72	
 C12	 OBJROW 	-15	 R0 	73	
 C13	 OBJROW 	-28	 R0 	90	
 C14	 OBJROW 	-38	 R0 	92	
RHS
 RHS	 R0 	 276	
BOUNDS
 BV BOUND	C0	 1	
 BV BOUND	C1	 1	
 BV BOUND	C2	 1	
 BV BOUND	C3	 1	
 BV BOUND	C4	 1	
 BV BOUND	C5	 1	
 BV BOUND	C6	 1	
 BV BOUND	C7	 1	
 BV BOUND	C8	 1	
 BV BOUND	C9	 1	
 BV BOUND	C10	 1	
 BV BOUND	C11	 1	
 BV BOUND	C12	 1	
 BV BOUND	C13	 1	
 BV BOUND	C14	 1	
ENDATA
