NAME	DNeg_n15k5j9
ROWS
 N 	 OBJROW
 L	 R0 
COLUMNS
 C0	 OBJROW 	-49	 R0 	17	
 C1	 OBJROW 	-96	 R0 	22	
 C2	 OBJROW 	-70	 R0 	35	
 C3	 OBJROW 	-83	 R0 	36	
 C4	 OBJROW 	-60	 R0 	38	
 C5	 OBJROW 	-33	 R0 	40	
 C6	 OBJROW 	-16	 R0 	51	
 C7	 OBJROW 	-15	 R0 	52	
 C8	 OBJROW 	-26	 R0 	57	
 C9	 OBJROW 	-21	 R0 	59	
 C10	 OBJROW 	-97	 R0 	68	
 C11	 OBJROW 	-30	 R0 	71	
 C12	 OBJROW 	-67	 R0 	71	
 C13	 OBJROW 	-75	 R0 	77	
 C14	 OBJROW 	-65	 R0 	97	
RHS
 RHS	 R0 	 432	
BOUNDS
 BV BOUND	C0	 1	
 BV BOUND	C1	 1	
 BV BOUND	C2	 1	
 BV BOUND	C3	 1	
 BV BOUND	C4	 1	
 BV BOUND	C5	 1	
 BV BOUND	C6	 1	
 BV BOUND	C7	 1	
 BV BOUND	C8	 1	
 BV BOUND	C9	 1	
 BV BOUND	C10	 1	
 BV BOUND	C11	 1	
 BV BOUND	C12	 1	
 BV BOUND	C13	 1	
 BV BOUND	C14	 1	
ENDATA
