NAME	DNeg_n15k3j6
ROWS
 N 	 OBJROW
 L	 R0 
COLUMNS
 C0	 OBJROW 	-30	 R0 	10	
 C1	 OBJROW 	-55	 R0 	12	
 C2	 OBJROW 	-73	 R0 	12	
 C3	 OBJROW 	-6	 R0 	19	
 C4	 OBJROW 	-16	 R0 	33	
 C5	 OBJROW 	-7	 R0 	55	
 C6	 OBJROW 	-7	 R0 	56	
 C7	 OBJROW 	-26	 R0 	65	
 C8	 OBJROW 	-43	 R0 	74	
 C9	 OBJROW 	-80	 R0 	75	
 C10	 OBJROW 	-20	 R0 	75	
 C11	 OBJROW 	-72	 R0 	76	
 C12	 OBJROW 	-66	 R0 	77	
 C13	 OBJROW 	-15	 R0 	77	
 C14	 OBJROW 	-40	 R0 	92	
RHS
 RHS	 R0 	 294	
BOUNDS
 BV BOUND	C0	 1	
 BV BOUND	C1	 1	
 BV BOUND	C2	 1	
 BV BOUND	C3	 1	
 BV BOUND	C4	 1	
 BV BOUND	C5	 1	
 BV BOUND	C6	 1	
 BV BOUND	C7	 1	
 BV BOUND	C8	 1	
 BV BOUND	C9	 1	
 BV BOUND	C10	 1	
 BV BOUND	C11	 1	
 BV BOUND	C12	 1	
 BV BOUND	C13	 1	
 BV BOUND	C14	 1	
ENDATA
