NAME          BLANK
ROWS
 N  OBJROW
 L  R0000000
 L  R0000001
 L  R0000002
 L  R0000003
 L  R0000004
 L  R0000005
COLUMNS
    C0000000  OBJROW    -10.00          R0000000    5.00
    C0000000  R0000003    4.00
    C0000001  OBJROW    -10.00          R0000000    5.00
    C0000001  R0000002    3.00          R0000005    6.00
    C0000002  OBJROW     -1.00          R0000000    7.00
    C0000002  R0000001    6.00          R0000004    3.00
    C0000002  R0000005    6.00
    C0000003  OBJROW     -5.00          R0000002    5.00
    C0000003  R0000003    6.00          R0000005    6.00
    C0000004  OBJROW     -7.00          R0000001    4.00
    C0000004  R0000002    5.00          R0000004    5.00
    C0000005  OBJROW     -4.00          R0000004    3.00
    C0000005  R0000005    4.00
    C0000006  OBJROW    -10.00          R0000000    6.00
    C0000006  R0000002    4.00          R0000003    4.00
    C0000007  OBJROW     -7.00          R0000003    6.00
    C0000008  OBJROW     -1.00          R0000001    3.00
    C0000009  OBJROW     -9.00          R0000000    7.00
    C0000009  R0000002    4.00          R0000004    7.00
    C0000009  R0000005    7.00
    C0000010  OBJROW     -8.00          R0000005    5.00
    C0000011  OBJROW     -1.00          R0000002    6.00
    C0000011  R0000004    4.00
    C0000012  OBJROW     -1.00          R0000000    3.00
    C0000012  R0000002    7.00          R0000004    3.00
    C0000013  OBJROW     -9.00          R0000002    6.00
    C0000014  OBJROW     -7.00          R0000001    3.00
    C0000014  R0000003    4.00          R0000004    5.00
    C0000015  OBJROW    -10.00          R0000003    7.00
    C0000015  R0000004    3.00          R0000005    4.00
    C0000016  OBJROW     -8.00          R0000005    6.00
    C0000017  OBJROW     -9.00          R0000004    3.00
    C0000017  R0000005    6.00
    C0000018  OBJROW     -5.00          R0000000    5.00
    C0000019  OBJROW     -2.00          R0000000    7.00
    C0000019  R0000005    4.00
    C0000020  OBJROW     -2.00          R0000003    7.00
    C0000020  R0000004    4.00
    C0000021  OBJROW     -4.00          R0000000    6.00
    C0000022  OBJROW    -10.00          R0000002    5.00
    C0000022  R0000005    6.00
    C0000023  OBJROW     -8.00          R0000001    3.00
    C0000023  R0000003    5.00
    C0000024  OBJROW     -7.00          R0000001    3.00
    C0000024  R0000002    3.00          R0000003    4.00
    C0000024  R0000004    7.00
    C0000025  OBJROW     -7.00          R0000002    6.00
    C0000025  R0000003    4.00          R0000005    4.00
    C0000026  OBJROW     -2.00          R0000000    3.00
    C0000026  R0000002    6.00          R0000003    7.00
    C0000026  R0000005    4.00
    C0000027  OBJROW     -6.00          R0000005    3.00
    C0000028  OBJROW    -10.00          R0000003    3.00
    C0000028  R0000005    5.00
    C0000029  OBJROW     -1.00          R0000000    3.00
    C0000029  R0000002    3.00          R0000004    4.00
    C0000029  R0000005    6.00
    C0000030  OBJROW    -10.00          R0000003    5.00
    C0000030  R0000004    3.00
    C0000031  OBJROW     -2.00          R0000001    7.00
    C0000032  OBJROW     -2.00          R0000001    3.00
    C0000032  R0000003    4.00
    C0000033  OBJROW     -6.00          R0000003    7.00
    C0000033  R0000004    3.00
    C0000034  OBJROW     -8.00          R0000002    3.00
    C0000034  R0000003    3.00          R0000004    3.00
    C0000035  OBJROW     -5.00          R0000003    6.00
    C0000035  R0000004    3.00
    C0000036  OBJROW     -4.00          R0000002    4.00
    C0000037  OBJROW     -4.00          R0000001    5.00
    C0000037  R0000003    4.00          R0000005    6.00
    C0000038  OBJROW     -4.00          R0000005    7.00
    C0000039  OBJROW     -3.00          R0000005    4.00
    C0000040  OBJROW     -5.00          R0000000    3.00
    C0000040  R0000001    7.00          R0000003    4.00
    C0000041  OBJROW     -5.00          R0000000    6.00
    C0000041  R0000002    3.00
    C0000042  OBJROW     -3.00          R0000003    6.00
    C0000042  R0000005    5.00
    C0000043  OBJROW     -9.00          R0000000    3.00
    C0000043  R0000003    7.00          R0000004    5.00
    C0000043  R0000005    7.00
    C0000044  OBJROW     -3.00          R0000001    3.00
    C0000044  R0000002    3.00          R0000005    4.00
    C0000045  OBJROW     -2.00          R0000001    4.00
    C0000045  R0000004    3.00
    C0000046  OBJROW     -3.00          R0000000    5.00
    C0000046  R0000002    3.00          R0000003    7.00
    C0000046  R0000004    5.00
    C0000047  OBJROW     -7.00          R0000002    3.00
    C0000047  R0000004    7.00
    C0000048  OBJROW     -2.00          R0000000    4.00
    C0000048  R0000001    7.00          R0000003    5.00
    C0000048  R0000005    4.00
    C0000049  OBJROW     -8.00          R0000001    6.00
    C0000049  R0000005    6.00
    C0000050  OBJROW     -3.00          R0000000    7.00
    C0000050  R0000001    6.00          R0000002    8.00
    C0000050  R0000003    8.00
    C0000051  OBJROW     -2.00          R0000000    8.00
    C0000051  R0000003    6.00          R0000004    7.00
    C0000051  R0000005    5.00
    C0000052  OBJROW     -6.00          R0000000    7.00
    C0000052  R0000004    9.00
    C0000053  OBJROW     -8.00          R0000002    6.00
    C0000053  R0000003    7.00          R0000004    8.00
    C0000054  OBJROW     -6.00          R0000001    5.00
    C0000054  R0000003    7.00
    C0000055  OBJROW     -8.00          R0000001    7.00
    C0000055  R0000002    9.00          R0000004    7.00
    C0000055  R0000005    5.00
    C0000056  OBJROW     -2.00          R0000001    5.00
    C0000056  R0000002    9.00          R0000004    7.00
    C0000056  R0000005    8.00
    C0000057  OBJROW     -3.00          R0000000    8.00
    C0000057  R0000001    8.00          R0000002    6.00
    C0000057  R0000003    8.00          R0000005    9.00
    C0000058  OBJROW     -4.00          R0000001    7.00
    C0000058  R0000004    8.00          R0000005    6.00
    C0000059  OBJROW     -7.00          R0000000    6.00
    C0000059  R0000002    8.00          R0000005    7.00
    C0000060  OBJROW     -2.00          R0000000    5.00
    C0000060  R0000003    7.00          R0000004    9.00
    C0000061  OBJROW     -3.00          R0000004    8.00
    C0000061  R0000005    8.00
    C0000062  OBJROW     -9.00          R0000000    6.00
    C0000062  R0000001    7.00
    C0000063  OBJROW     -7.00          R0000001    8.00
    C0000063  R0000004    9.00          R0000005    9.00
    C0000064  OBJROW     -5.00          R0000000    8.00
    C0000064  R0000003    7.00
    C0000065  OBJROW     -1.00          R0000000    6.00
    C0000065  R0000001    6.00          R0000004    7.00
    C0000066  OBJROW     -8.00          R0000005    5.00
    C0000067  OBJROW    -10.00          R0000002    5.00
    C0000067  R0000003    8.00
    C0000068  OBJROW     -9.00          R0000004    5.00
    C0000069  OBJROW     -2.00          R0000001    5.00
    C0000069  R0000002    9.00          R0000005    9.00
    C0000070  OBJROW     -6.00          R0000002    9.00
    C0000070  R0000005    5.00
    C0000071  OBJROW     -9.00          R0000001    8.00
    C0000072  OBJROW     -9.00          R0000000    5.00
    C0000073  OBJROW     -1.00          R0000003    6.00
    C0000074  OBJROW     -7.00          R0000001    6.00
    C0000074  R0000005    6.00
    C0000075  OBJROW     -9.00          R0000001    9.00
    C0000075  R0000005    7.00
    C0000076  OBJROW    -10.00          R0000002    5.00
    C0000076  R0000003    9.00
    C0000077  OBJROW     -9.00          R0000001    5.00
    C0000078  OBJROW     -6.00          R0000005    8.00
    C0000079  OBJROW     -9.00          R0000001    5.00
    C0000079  R0000003    6.00          R0000004    6.00
    C0000080  OBJROW     -8.00          R0000001    7.00
    C0000080  R0000002    6.00          R0000004    9.00
    C0000080  R0000005    7.00
    C0000081  OBJROW    -10.00          R0000000    9.00
    C0000081  R0000003    5.00          R0000004    7.00
    C0000082  OBJROW     -4.00          R0000001    6.00
    C0000082  R0000003    9.00          R0000004    5.00
    C0000083  OBJROW     -3.00          R0000000    5.00
    C0000083  R0000002    8.00          R0000004    9.00
    C0000083  R0000005    7.00
    C0000084  OBJROW     -4.00          R0000001    7.00
    C0000084  R0000004    7.00
    C0000085  OBJROW     -9.00          R0000000    5.00
    C0000085  R0000001    8.00          R0000004    9.00
    C0000085  R0000005    8.00
    C0000086  OBJROW     -9.00          R0000002    5.00
    C0000087  OBJROW     -9.00          R0000002    5.00
    C0000087  R0000004    6.00
    C0000088  OBJROW     -7.00          R0000000    5.00
    C0000088  R0000002    6.00          R0000004    8.00
    C0000089  OBJROW     -6.00          R0000001    5.00
    C0000089  R0000004    7.00
    C0000090  OBJROW     -8.00          R0000002    9.00
    C0000090  R0000003    5.00          R0000005    7.00
    C0000091  OBJROW     -1.00          R0000000    5.00
    C0000091  R0000003    8.00          R0000005    9.00
    C0000092  OBJROW     -6.00          R0000001    5.00
    C0000092  R0000002    5.00          R0000003    8.00
    C0000093  OBJROW     -2.00          R0000000    7.00
    C0000093  R0000002    8.00          R0000005    5.00
    C0000094  OBJROW     -1.00          R0000000    6.00
    C0000094  R0000002    6.00          R0000004    6.00
    C0000095  OBJROW     -6.00          R0000001    5.00
    C0000095  R0000002    8.00          R0000005    9.00
    C0000096  OBJROW     -4.00          R0000000    7.00
    C0000096  R0000001    7.00          R0000002    6.00
    C0000096  R0000005    6.00
    C0000097  OBJROW     -3.00          R0000003    7.00
    C0000098  OBJROW     -8.00          R0000002    7.00
    C0000098  R0000003    6.00          R0000005    5.00
    C0000099  OBJROW     -2.00          R0000000    6.00
    C0000099  R0000002    6.00          R0000004    9.00
    C0000099  R0000005    8.00
    C0000100  OBJROW     -4.00          R0000000    8.00
    C0000100  R0000004    7.00
    C0000101  OBJROW     -5.00          R0000002    5.00
    C0000101  R0000003    9.00          R0000004    5.00
    C0000101  R0000005    8.00
    C0000102  OBJROW    -10.00          R0000001    6.00
    C0000102  R0000004    6.00
    C0000103  OBJROW     -5.00          R0000000    5.00
    C0000103  R0000002    5.00          R0000003    8.00
    C0000103  R0000004    8.00
    C0000104  OBJROW    -10.00          R0000004    7.00
    C0000105  OBJROW     -3.00          R0000000    8.00
    C0000105  R0000001    5.00          R0000002    7.00
    C0000106  OBJROW    -10.00          R0000000    9.00
    C0000106  R0000002    9.00          R0000004    5.00
    C0000106  R0000005    7.00
    C0000107  OBJROW     -3.00          R0000003    9.00
    C0000107  R0000005    6.00
    C0000108  OBJROW     -8.00          R0000000    7.00
    C0000109  OBJROW     -7.00          R0000002    5.00
    C0000109  R0000003    8.00          R0000005    5.00
    C0000110  OBJROW     -4.00          R0000002    9.00
    C0000110  R0000005    8.00
    C0000111  OBJROW     -9.00          R0000001    9.00
    C0000111  R0000002    9.00          R0000003    9.00
    C0000111  R0000004    9.00
    C0000112  OBJROW     -5.00          R0000000    6.00
    C0000112  R0000002    7.00          R0000005    5.00
    C0000113  OBJROW     -4.00          R0000002    8.00
    C0000113  R0000005    8.00
    C0000114  OBJROW     -8.00          R0000001    9.00
    C0000114  R0000002    9.00          R0000005    8.00
    C0000115  OBJROW     -8.00          R0000000    5.00
    C0000115  R0000001    7.00          R0000004    8.00
    C0000116  OBJROW     -8.00          R0000000    9.00
    C0000116  R0000002    5.00          R0000005    8.00
    C0000117  OBJROW     -5.00          R0000000    8.00
    C0000117  R0000003    8.00
    C0000118  OBJROW     -5.00          R0000000    9.00
    C0000118  R0000002    8.00          R0000003    9.00
    C0000118  R0000004    9.00
    C0000119  OBJROW     -3.00          R0000002    8.00
    C0000119  R0000003    9.00          R0000005    6.00
RHS
    RHS       R0000000   22.00         R0000001   25.00
    RHS       R0000002   21.00         R0000003   23.00
    RHS       R0000004   21.00         R0000005   24.00
BOUNDS
 UI BOUND     C0000000       10
 UI BOUND     C0000001       10
 UI BOUND     C0000002       10
 UI BOUND     C0000003       10
 UI BOUND     C0000004       10
 UI BOUND     C0000005       10
 UI BOUND     C0000006       10
 UI BOUND     C0000007       10
 UI BOUND     C0000008       10
 UI BOUND     C0000009       10
 UI BOUND     C0000010       10
 UI BOUND     C0000011       10
 UI BOUND     C0000012       10
 UI BOUND     C0000013       10
 UI BOUND     C0000014       10
 UI BOUND     C0000015       10
 UI BOUND     C0000016       10
 UI BOUND     C0000017       10
 UI BOUND     C0000018       10
 UI BOUND     C0000019       10
 UI BOUND     C0000020       10
 UI BOUND     C0000021       10
 UI BOUND     C0000022       10
 UI BOUND     C0000023       10
 UI BOUND     C0000024       10
 UI BOUND     C0000025       10
 UI BOUND     C0000026       10
 UI BOUND     C0000027       10
 UI BOUND     C0000028       10
 UI BOUND     C0000029       10
 UI BOUND     C0000030       10
 UI BOUND     C0000031       10
 UI BOUND     C0000032       10
 UI BOUND     C0000033       10
 UI BOUND     C0000034       10
 UI BOUND     C0000035       10
 UI BOUND     C0000036       10
 UI BOUND     C0000037       10
 UI BOUND     C0000038       10
 UI BOUND     C0000039       10
 UI BOUND     C0000040       10
 UI BOUND     C0000041       10
 UI BOUND     C0000042       10
 UI BOUND     C0000043       10
 UI BOUND     C0000044       10
 UI BOUND     C0000045       10
 UI BOUND     C0000046       10
 UI BOUND     C0000047       10
 UI BOUND     C0000048       10
 UI BOUND     C0000049       10
 LI BOUND     C0000050       0
 LI BOUND     C0000051       0
 LI BOUND     C0000052       0
 LI BOUND     C0000053       0
 LI BOUND     C0000054       0
 LI BOUND     C0000055       0
 LI BOUND     C0000056       0
 LI BOUND     C0000057       0
 LI BOUND     C0000058       0
 LI BOUND     C0000059       0
 LI BOUND     C0000060       0
 LI BOUND     C0000061       0
 LI BOUND     C0000062       0
 LI BOUND     C0000063       0
 LI BOUND     C0000064       0
 LI BOUND     C0000065       0
 LI BOUND     C0000066       0
 LI BOUND     C0000067       0
 LI BOUND     C0000068       0
 LI BOUND     C0000069       0
 LI BOUND     C0000070       0
 LI BOUND     C0000071       0
 LI BOUND     C0000072       0
 LI BOUND     C0000073       0
 LI BOUND     C0000074       0
 LI BOUND     C0000075       0
 LI BOUND     C0000076       0
 LI BOUND     C0000077       0
 LI BOUND     C0000078       0
 LI BOUND     C0000079       0
 LI BOUND     C0000080       0
 LI BOUND     C0000081       0
 LI BOUND     C0000082       0
 LI BOUND     C0000083       0
 LI BOUND     C0000084       0
 LI BOUND     C0000085       0
 LI BOUND     C0000086       0
 LI BOUND     C0000087       0
 LI BOUND     C0000088       0
 LI BOUND     C0000089       0
 LI BOUND     C0000090       0
 LI BOUND     C0000091       0
 LI BOUND     C0000092       0
 LI BOUND     C0000093       0
 LI BOUND     C0000094       0
 LI BOUND     C0000095       0
 LI BOUND     C0000096       0
 LI BOUND     C0000097       0
 LI BOUND     C0000098       0
 LI BOUND     C0000099       0
 LI BOUND     C0000100       0
 LI BOUND     C0000101       0
 LI BOUND     C0000102       0
 LI BOUND     C0000103       0
 LI BOUND     C0000104       0
 LI BOUND     C0000105       0
 LI BOUND     C0000106       0
 LI BOUND     C0000107       0
 LI BOUND     C0000108       0
 LI BOUND     C0000109       0
 LI BOUND     C0000110       0
 LI BOUND     C0000111       0
 LI BOUND     C0000112       0
 LI BOUND     C0000113       0
 LI BOUND     C0000114       0
 LI BOUND     C0000115       0
 LI BOUND     C0000116       0
 LI BOUND     C0000117       0
 LI BOUND     C0000118       0
 LI BOUND     C0000119       0
ENDATA
