NAME          BLANK
ROWS
 N  OBJROW
 L  R0000000
 L  R0000001
 L  R0000002
 L  R0000003
 L  R0000004
 L  R0000005
COLUMNS
    C0000000  OBJROW     -5.00          R0000000    7.00
    C0000000  R0000001    7.00          R0000002    4.00
    C0000000  R0000003    6.00
    C0000001  OBJROW     -7.00          R0000001    3.00
    C0000001  R0000002    7.00          R0000004    4.00
    C0000001  R0000005    5.00
    C0000002  OBJROW     -8.00          R0000000    5.00
    C0000002  R0000002    3.00          R0000005    6.00
    C0000003  OBJROW     -4.00          R0000001    7.00
    C0000003  R0000004    6.00          R0000005    6.00
    C0000004  OBJROW     -3.00          R0000001    3.00
    C0000004  R0000002    3.00          R0000003    3.00
    C0000004  R0000004    5.00
    C0000005  OBJROW     -5.00          R0000001    7.00
    C0000005  R0000002    5.00          R0000004    7.00
    C0000005  R0000005    6.00
    C0000006  OBJROW     -8.00          R0000002    7.00
    C0000006  R0000003    4.00          R0000004    5.00
    C0000006  R0000005    4.00
    C0000007  OBJROW     -5.00          R0000000    3.00
    C0000007  R0000002    7.00          R0000004    3.00
    C0000008  OBJROW     -8.00          R0000002    3.00
    C0000009  OBJROW     -2.00          R0000001    6.00
    C0000009  R0000002    3.00          R0000003    7.00
    C0000009  R0000005    7.00
    C0000010  OBJROW     -7.00          R0000000    5.00
    C0000010  R0000001    4.00          R0000002    7.00
    C0000011  OBJROW     -3.00          R0000002    4.00
    C0000012  OBJROW     -3.00          R0000002    7.00
    C0000013  OBJROW     -2.00          R0000000    7.00
    C0000013  R0000004    3.00
    C0000014  OBJROW     -8.00          R0000002    6.00
    C0000014  R0000003    3.00          R0000004    6.00
    C0000014  R0000005    3.00
    C0000015  OBJROW     -3.00          R0000002    4.00
    C0000015  R0000003    7.00          R0000005    7.00
    C0000016  OBJROW    -10.00          R0000000    3.00
    C0000016  R0000002    5.00          R0000004    6.00
    C0000017  OBJROW    -10.00          R0000002    6.00
    C0000017  R0000005    7.00
    C0000018  OBJROW     -1.00          R0000002    6.00
    C0000019  OBJROW     -6.00          R0000002    5.00
    C0000020  OBJROW     -3.00          R0000002    7.00
    C0000020  R0000005    4.00
    C0000021  OBJROW     -9.00          R0000001    7.00
    C0000021  R0000003    7.00          R0000004    6.00
    C0000022  OBJROW     -4.00          R0000001    4.00
    C0000023  OBJROW     -3.00          R0000004    6.00
    C0000023  R0000005    5.00
    C0000024  OBJROW     -2.00          R0000000    7.00
    C0000024  R0000005    5.00
    C0000025  OBJROW     -3.00          R0000000    3.00
    C0000025  R0000001    6.00          R0000002    3.00
    C0000025  R0000004    6.00
    C0000026  OBJROW     -5.00          R0000002    7.00
    C0000026  R0000005    5.00
    C0000027  OBJROW     -2.00          R0000000    5.00
    C0000027  R0000001    3.00          R0000002    7.00
    C0000027  R0000005    6.00
    C0000028  OBJROW     -1.00          R0000002    5.00
    C0000028  R0000003    5.00          R0000004    6.00
    C0000029  OBJROW    -10.00          R0000000    4.00
    C0000029  R0000001    6.00          R0000003    3.00
    C0000029  R0000005    7.00
    C0000030  OBJROW     -2.00          R0000001    7.00
    C0000030  R0000003    3.00          R0000005    5.00
    C0000031  OBJROW     -4.00          R0000003    4.00
    C0000031  R0000005    4.00
    C0000032  OBJROW     -3.00          R0000000    5.00
    C0000032  R0000001    4.00          R0000005    7.00
    C0000033  OBJROW     -4.00          R0000000    3.00
    C0000033  R0000002    3.00          R0000003    4.00
    C0000033  R0000005    4.00
    C0000034  OBJROW     -5.00          R0000001    4.00
    C0000034  R0000004    6.00          R0000005    6.00
    C0000035  OBJROW     -6.00          R0000000    3.00
    C0000035  R0000002    4.00          R0000003    6.00
    C0000036  OBJROW     -3.00          R0000003    6.00
    C0000037  OBJROW     -1.00          R0000002    4.00
    C0000037  R0000003    4.00
    C0000038  OBJROW     -6.00          R0000000    4.00
    C0000038  R0000002    4.00          R0000004    6.00
    C0000038  R0000005    4.00
    C0000039  OBJROW     -8.00          R0000000    4.00
    C0000039  R0000002    5.00          R0000003    4.00
    C0000040  OBJROW     -6.00          R0000001    5.00
    C0000040  R0000002    3.00          R0000004    7.00
    C0000040  R0000005    6.00
    C0000041  OBJROW     -4.00          R0000001    5.00
    C0000041  R0000003    7.00          R0000004    3.00
    C0000042  OBJROW     -1.00          R0000000    3.00
    C0000042  R0000002    4.00          R0000005    6.00
    C0000043  OBJROW     -9.00          R0000001    5.00
    C0000043  R0000002    3.00          R0000003    6.00
    C0000043  R0000004    6.00          R0000005    5.00
    C0000044  OBJROW     -9.00          R0000001    7.00
    C0000044  R0000003    3.00          R0000004    7.00
    C0000045  OBJROW     -4.00          R0000000    3.00
    C0000045  R0000002    7.00
    C0000046  OBJROW     -8.00          R0000000    3.00
    C0000046  R0000001    7.00          R0000002    3.00
    C0000046  R0000003    3.00          R0000004    4.00
    C0000046  R0000005    4.00
    C0000047  OBJROW     -1.00          R0000000    5.00
    C0000047  R0000004    4.00
    C0000048  OBJROW    -10.00          R0000000    4.00
    C0000048  R0000003    7.00
    C0000049  OBJROW    -10.00          R0000005    5.00
    C0000050  OBJROW     -5.00          R0000002    7.00
    C0000050  R0000003    4.00          R0000004    3.00
    C0000051  OBJROW     -7.00          R0000000    7.00
    C0000051  R0000001    7.00          R0000002    6.00
    C0000051  R0000003    4.00          R0000004    5.00
    C0000052  OBJROW     -8.00          R0000000    3.00
    C0000052  R0000001    6.00          R0000005    5.00
    C0000053  OBJROW    -10.00          R0000001    5.00
    C0000053  R0000003    4.00          R0000004    6.00
    C0000054  OBJROW     -1.00          R0000003    6.00
    C0000054  R0000005    6.00
    C0000055  OBJROW     -1.00          R0000001    6.00
    C0000055  R0000002    7.00
    C0000056  OBJROW     -5.00          R0000001    5.00
    C0000056  R0000003    6.00          R0000005    7.00
    C0000057  OBJROW     -7.00          R0000000    7.00
    C0000057  R0000005    4.00
    C0000058  OBJROW    -10.00          R0000001    5.00
    C0000058  R0000002    4.00          R0000004    5.00
    C0000059  OBJROW     -5.00          R0000001    7.00
    C0000059  R0000002    4.00          R0000005    5.00
    C0000060  OBJROW     -2.00          R0000000    3.00
    C0000060  R0000002    4.00          R0000003    6.00
    C0000060  R0000005    6.00
    C0000061  OBJROW     -2.00          R0000001    3.00
    C0000061  R0000002    5.00          R0000004    5.00
    C0000062  OBJROW     -3.00          R0000005    6.00
    C0000063  OBJROW     -7.00          R0000003    3.00
    C0000063  R0000004    5.00          R0000005    7.00
    C0000064  OBJROW     -1.00          R0000001    3.00
    C0000064  R0000002    7.00          R0000005    4.00
    C0000065  OBJROW     -3.00          R0000001    7.00
    C0000065  R0000002    7.00          R0000005    4.00
    C0000066  OBJROW     -6.00          R0000002    4.00
    C0000066  R0000005    4.00
    C0000067  OBJROW     -1.00          R0000001    4.00
    C0000067  R0000002    3.00
    C0000068  OBJROW     -6.00          R0000004    7.00
    C0000069  OBJROW     -6.00          R0000000    6.00
    C0000070  OBJROW     -2.00          R0000001    4.00
    C0000070  R0000004    4.00          R0000005    5.00
    C0000071  OBJROW     -2.00          R0000004    5.00
    C0000072  OBJROW     -3.00          R0000001    6.00
    C0000072  R0000003    6.00          R0000005    3.00
    C0000073  OBJROW     -9.00          R0000001    6.00
    C0000073  R0000002    5.00          R0000003    6.00
    C0000074  OBJROW     -6.00          R0000001    3.00
    C0000074  R0000002    7.00          R0000003    7.00
    C0000074  R0000005    3.00
    C0000075  OBJROW     -1.00          R0000002    3.00
    C0000075  R0000004    4.00
    C0000076  OBJROW     -2.00          R0000004    3.00
    C0000076  R0000005    3.00
    C0000077  OBJROW     -1.00          R0000001    3.00
    C0000077  R0000002    4.00          R0000004    4.00
    C0000078  OBJROW     -2.00          R0000001    5.00
    C0000078  R0000003    3.00
    C0000079  OBJROW     -6.00          R0000000    7.00
    C0000079  R0000001    7.00          R0000002    7.00
    C0000079  R0000003    7.00          R0000005    3.00
    C0000080  OBJROW     -5.00          R0000004    8.00
    C0000080  R0000005    9.00
    C0000081  OBJROW     -1.00          R0000002    8.00
    C0000081  R0000003    7.00
    C0000082  OBJROW     -6.00          R0000003    9.00
    C0000082  R0000004    5.00          R0000005    9.00
    C0000083  OBJROW     -7.00          R0000002    7.00
    C0000083  R0000004    5.00
    C0000084  OBJROW     -4.00          R0000002    5.00
    C0000084  R0000003    8.00          R0000005    6.00
    C0000085  OBJROW     -9.00          R0000000    9.00
    C0000085  R0000002    7.00          R0000003    5.00
    C0000086  OBJROW     -6.00          R0000001    6.00
    C0000086  R0000004    5.00          R0000005    9.00
    C0000087  OBJROW    -10.00          R0000000    6.00
    C0000087  R0000002    6.00          R0000003    9.00
    C0000087  R0000005    8.00
    C0000088  OBJROW     -5.00          R0000002    7.00
    C0000088  R0000003    7.00          R0000004    9.00
    C0000088  R0000005    9.00
    C0000089  OBJROW     -1.00          R0000000    5.00
    C0000090  OBJROW     -7.00          R0000002    6.00
    C0000090  R0000004    7.00          R0000005    8.00
    C0000091  OBJROW     -1.00          R0000000    6.00
    C0000091  R0000001    8.00          R0000002    8.00
    C0000092  OBJROW     -1.00          R0000002    8.00
    C0000092  R0000003    7.00          R0000004    8.00
    C0000093  OBJROW     -3.00          R0000003    9.00
    C0000094  OBJROW     -3.00          R0000001    9.00
    C0000094  R0000003    9.00          R0000004    5.00
    C0000095  OBJROW     -2.00          R0000000    9.00
    C0000095  R0000001    5.00          R0000003    7.00
    C0000096  OBJROW     -7.00          R0000000    6.00
    C0000096  R0000002    9.00          R0000003    6.00
    C0000096  R0000005    8.00
    C0000097  OBJROW     -4.00          R0000001    8.00
    C0000098  OBJROW     -9.00          R0000002    5.00
    C0000099  OBJROW     -1.00          R0000001    9.00
    C0000099  R0000002    9.00          R0000003    5.00
    C0000099  R0000005    7.00
    C0000100  OBJROW     -9.00          R0000001    5.00
    C0000100  R0000004    9.00          R0000005    9.00
    C0000101  OBJROW     -3.00          R0000000    9.00
    C0000101  R0000001    5.00          R0000005    5.00
    C0000102  OBJROW     -1.00          R0000000    8.00
    C0000102  R0000003    9.00          R0000005    7.00
    C0000103  OBJROW     -3.00          R0000002    7.00
    C0000103  R0000005    5.00
    C0000104  OBJROW     -7.00          R0000001    5.00
    C0000104  R0000004    8.00          R0000005    8.00
    C0000105  OBJROW     -4.00          R0000000    6.00
    C0000105  R0000001    5.00          R0000003    8.00
    C0000105  R0000004    9.00
    C0000106  OBJROW     -8.00          R0000001    6.00
    C0000106  R0000002    9.00          R0000004    8.00
    C0000107  OBJROW     -4.00          R0000004    6.00
    C0000108  OBJROW     -1.00          R0000002    8.00
    C0000108  R0000004    5.00
    C0000109  OBJROW    -10.00          R0000001    8.00
    C0000109  R0000002    9.00          R0000005    6.00
    C0000110  OBJROW     -7.00          R0000000    9.00
    C0000111  OBJROW     -4.00          R0000000    6.00
    C0000111  R0000003    6.00          R0000004    5.00
    C0000111  R0000005    5.00
    C0000112  OBJROW     -4.00          R0000005    8.00
    C0000113  OBJROW     -5.00          R0000002    8.00
    C0000114  OBJROW    -10.00          R0000003    5.00
    C0000115  OBJROW     -2.00          R0000000    6.00
    C0000115  R0000001    9.00          R0000002    5.00
    C0000115  R0000003    6.00
    C0000116  OBJROW     -9.00          R0000002    8.00
    C0000116  R0000004    6.00
    C0000117  OBJROW     -8.00          R0000000    6.00
    C0000117  R0000004    8.00          R0000005    6.00
    C0000118  OBJROW     -1.00          R0000000    5.00
    C0000118  R0000001    9.00          R0000002    7.00
    C0000118  R0000005    8.00
    C0000119  OBJROW     -2.00          R0000001    7.00
    C0000119  R0000002    7.00          R0000004    5.00
    C0000119  R0000005    8.00
    C0000120  OBJROW     -3.00          R0000003    6.00
    C0000121  OBJROW     -4.00          R0000000    7.00
    C0000121  R0000003    9.00
    C0000122  OBJROW     -2.00          R0000000    5.00
    C0000122  R0000001    8.00
    C0000123  OBJROW     -9.00          R0000001    5.00
    C0000123  R0000002    8.00          R0000003    8.00
    C0000123  R0000004    6.00
    C0000124  OBJROW     -9.00          R0000001    9.00
    C0000125  OBJROW     -7.00          R0000001    7.00
    C0000125  R0000002    7.00          R0000003    8.00
    C0000125  R0000004    5.00
    C0000126  OBJROW    -10.00          R0000000    6.00
    C0000126  R0000005    7.00
    C0000127  OBJROW     -7.00          R0000000    9.00
    C0000127  R0000002    7.00
    C0000128  OBJROW     -9.00          R0000004    9.00
    C0000129  OBJROW     -7.00          R0000005    5.00
    C0000130  OBJROW     -2.00          R0000002    6.00
    C0000130  R0000004    7.00          R0000005    5.00
    C0000131  OBJROW     -2.00          R0000000    5.00
    C0000131  R0000002    8.00          R0000003    5.00
    C0000131  R0000005    6.00
    C0000132  OBJROW     -4.00          R0000001    7.00
    C0000132  R0000002    7.00          R0000004    6.00
    C0000133  OBJROW     -8.00          R0000000    8.00
    C0000133  R0000001    8.00          R0000004    5.00
    C0000134  OBJROW     -4.00          R0000000    7.00
    C0000134  R0000001    6.00          R0000003    8.00
    C0000134  R0000005    5.00
    C0000135  OBJROW     -8.00          R0000002    8.00
    C0000135  R0000005    5.00
    C0000136  OBJROW     -6.00          R0000001    8.00
    C0000136  R0000005    6.00
    C0000137  OBJROW     -4.00          R0000000    7.00
    C0000137  R0000002    8.00          R0000004    9.00
    C0000138  OBJROW    -10.00          R0000001    7.00
    C0000139  OBJROW     -2.00          R0000002    9.00
    C0000140  OBJROW     -1.00          R0000001    7.00
    C0000140  R0000005    6.00
    C0000141  OBJROW     -2.00          R0000000    7.00
    C0000141  R0000001    8.00          R0000002    9.00
    C0000141  R0000005    9.00
    C0000142  OBJROW     -4.00          R0000001    6.00
    C0000142  R0000003    7.00
    C0000143  OBJROW     -9.00          R0000000    7.00
    C0000143  R0000004    7.00          R0000005    7.00
    C0000144  OBJROW     -4.00          R0000000    6.00
    C0000144  R0000001    9.00          R0000002    8.00
    C0000144  R0000005    5.00
    C0000145  OBJROW     -2.00          R0000002    5.00
    C0000145  R0000003    7.00          R0000005    7.00
    C0000146  OBJROW     -5.00          R0000003    8.00
    C0000146  R0000004    6.00
    C0000147  OBJROW     -6.00          R0000004    8.00
    C0000148  OBJROW     -4.00          R0000002    6.00
    C0000148  R0000003    8.00          R0000004    7.00
    C0000149  OBJROW     -3.00          R0000001    5.00
    C0000149  R0000004    6.00          R0000005    8.00
    C0000150  OBJROW     -4.00          R0000001    5.00
    C0000150  R0000002    9.00          R0000003    7.00
    C0000150  R0000004    6.00
    C0000151  OBJROW    -10.00          R0000001    5.00
    C0000151  R0000005    5.00
    C0000152  OBJROW     -9.00          R0000000    7.00
    C0000152  R0000001    7.00          R0000002    9.00
    C0000152  R0000005    7.00
    C0000153  OBJROW     -8.00          R0000000    6.00
    C0000153  R0000003    7.00          R0000004    5.00
    C0000154  OBJROW     -5.00          R0000000    9.00
    C0000154  R0000003    6.00          R0000004    9.00
    C0000155  OBJROW     -1.00          R0000001    8.00
    C0000155  R0000005    8.00
    C0000156  OBJROW     -9.00          R0000000    8.00
    C0000156  R0000001    6.00          R0000003    8.00
    C0000156  R0000004    8.00          R0000005    9.00
    C0000157  OBJROW     -6.00          R0000000    8.00
    C0000157  R0000001    5.00          R0000003    5.00
    C0000158  OBJROW     -9.00          R0000000    8.00
    C0000158  R0000001    7.00          R0000002    8.00
    C0000158  R0000003    8.00          R0000004    8.00
    C0000159  OBJROW     -5.00          R0000003    8.00
    C0000159  R0000004    8.00
    C0000160  OBJROW     -7.00          R0000000    7.00
    C0000160  R0000003    6.00          R0000004    9.00
    C0000160  R0000005    6.00
    C0000161  OBJROW     -7.00          R0000002    6.00
    C0000161  R0000003    7.00
    C0000162  OBJROW     -4.00          R0000000    6.00
    C0000162  R0000001    7.00          R0000002    6.00
    C0000162  R0000003    7.00          R0000004    8.00
    C0000162  R0000005    7.00
    C0000163  OBJROW     -3.00          R0000002    9.00
    C0000163  R0000005    8.00
    C0000164  OBJROW     -7.00          R0000001    5.00
    C0000164  R0000003    8.00
    C0000165  OBJROW    -10.00          R0000001    5.00
    C0000165  R0000003    6.00          R0000004    8.00
    C0000166  OBJROW     -4.00          R0000003    7.00
    C0000167  OBJROW    -10.00          R0000002    5.00
    C0000167  R0000003    7.00          R0000004    9.00
    C0000168  OBJROW     -3.00          R0000001    8.00
    C0000168  R0000003    6.00
    C0000169  OBJROW     -1.00          R0000005    6.00
    C0000170  OBJROW     -8.00          R0000000    6.00
    C0000171  OBJROW     -8.00          R0000000    9.00
    C0000171  R0000004    7.00          R0000005    9.00
    C0000172  OBJROW     -5.00          R0000000    8.00
    C0000172  R0000004    8.00          R0000005    5.00
    C0000173  OBJROW     -7.00          R0000004    7.00
    C0000173  R0000005    5.00
    C0000174  OBJROW     -4.00          R0000000    8.00
    C0000174  R0000005    7.00
    C0000175  OBJROW     -7.00          R0000001    5.00
    C0000175  R0000002    9.00
    C0000176  OBJROW     -8.00          R0000003    7.00
    C0000176  R0000004    5.00
    C0000177  OBJROW     -4.00          R0000000    5.00
    C0000177  R0000001    9.00          R0000003    5.00
    C0000178  OBJROW     -9.00          R0000003    8.00
    C0000179  OBJROW     -1.00          R0000000    7.00
    C0000179  R0000001    9.00          R0000004    7.00
    C0000179  R0000005    5.00
RHS
    RHS       R0000000   29.00         R0000001   26.00
    RHS       R0000002   26.00         R0000003   26.00
    RHS       R0000004   28.00         R0000005   24.00
BOUNDS
 UI BOUND     C0000000       10
 UI BOUND     C0000001       10
 UI BOUND     C0000002       10
 UI BOUND     C0000003       10
 UI BOUND     C0000004       10
 UI BOUND     C0000005       10
 UI BOUND     C0000006       10
 UI BOUND     C0000007       10
 UI BOUND     C0000008       10
 UI BOUND     C0000009       10
 UI BOUND     C0000010       10
 UI BOUND     C0000011       10
 UI BOUND     C0000012       10
 UI BOUND     C0000013       10
 UI BOUND     C0000014       10
 UI BOUND     C0000015       10
 UI BOUND     C0000016       10
 UI BOUND     C0000017       10
 UI BOUND     C0000018       10
 UI BOUND     C0000019       10
 UI BOUND     C0000020       10
 UI BOUND     C0000021       10
 UI BOUND     C0000022       10
 UI BOUND     C0000023       10
 UI BOUND     C0000024       10
 UI BOUND     C0000025       10
 UI BOUND     C0000026       10
 UI BOUND     C0000027       10
 UI BOUND     C0000028       10
 UI BOUND     C0000029       10
 UI BOUND     C0000030       10
 UI BOUND     C0000031       10
 UI BOUND     C0000032       10
 UI BOUND     C0000033       10
 UI BOUND     C0000034       10
 UI BOUND     C0000035       10
 UI BOUND     C0000036       10
 UI BOUND     C0000037       10
 UI BOUND     C0000038       10
 UI BOUND     C0000039       10
 UI BOUND     C0000040       10
 UI BOUND     C0000041       10
 UI BOUND     C0000042       10
 UI BOUND     C0000043       10
 UI BOUND     C0000044       10
 UI BOUND     C0000045       10
 UI BOUND     C0000046       10
 UI BOUND     C0000047       10
 UI BOUND     C0000048       10
 UI BOUND     C0000049       10
 UI BOUND     C0000050       10
 UI BOUND     C0000051       10
 UI BOUND     C0000052       10
 UI BOUND     C0000053       10
 UI BOUND     C0000054       10
 UI BOUND     C0000055       10
 UI BOUND     C0000056       10
 UI BOUND     C0000057       10
 UI BOUND     C0000058       10
 UI BOUND     C0000059       10
 UI BOUND     C0000060       10
 UI BOUND     C0000061       10
 UI BOUND     C0000062       10
 UI BOUND     C0000063       10
 UI BOUND     C0000064       10
 UI BOUND     C0000065       10
 UI BOUND     C0000066       10
 UI BOUND     C0000067       10
 UI BOUND     C0000068       10
 UI BOUND     C0000069       10
 UI BOUND     C0000070       10
 UI BOUND     C0000071       10
 UI BOUND     C0000072       10
 UI BOUND     C0000073       10
 UI BOUND     C0000074       10
 UI BOUND     C0000075       10
 UI BOUND     C0000076       10
 UI BOUND     C0000077       10
 UI BOUND     C0000078       10
 UI BOUND     C0000079       10
 LI BOUND     C0000080       0
 LI BOUND     C0000081       0
 LI BOUND     C0000082       0
 LI BOUND     C0000083       0
 LI BOUND     C0000084       0
 LI BOUND     C0000085       0
 LI BOUND     C0000086       0
 LI BOUND     C0000087       0
 LI BOUND     C0000088       0
 LI BOUND     C0000089       0
 LI BOUND     C0000090       0
 LI BOUND     C0000091       0
 LI BOUND     C0000092       0
 LI BOUND     C0000093       0
 LI BOUND     C0000094       0
 LI BOUND     C0000095       0
 LI BOUND     C0000096       0
 LI BOUND     C0000097       0
 LI BOUND     C0000098       0
 LI BOUND     C0000099       0
 LI BOUND     C0000100       0
 LI BOUND     C0000101       0
 LI BOUND     C0000102       0
 LI BOUND     C0000103       0
 LI BOUND     C0000104       0
 LI BOUND     C0000105       0
 LI BOUND     C0000106       0
 LI BOUND     C0000107       0
 LI BOUND     C0000108       0
 LI BOUND     C0000109       0
 LI BOUND     C0000110       0
 LI BOUND     C0000111       0
 LI BOUND     C0000112       0
 LI BOUND     C0000113       0
 LI BOUND     C0000114       0
 LI BOUND     C0000115       0
 LI BOUND     C0000116       0
 LI BOUND     C0000117       0
 LI BOUND     C0000118       0
 LI BOUND     C0000119       0
 LI BOUND     C0000120       0
 LI BOUND     C0000121       0
 LI BOUND     C0000122       0
 LI BOUND     C0000123       0
 LI BOUND     C0000124       0
 LI BOUND     C0000125       0
 LI BOUND     C0000126       0
 LI BOUND     C0000127       0
 LI BOUND     C0000128       0
 LI BOUND     C0000129       0
 LI BOUND     C0000130       0
 LI BOUND     C0000131       0
 LI BOUND     C0000132       0
 LI BOUND     C0000133       0
 LI BOUND     C0000134       0
 LI BOUND     C0000135       0
 LI BOUND     C0000136       0
 LI BOUND     C0000137       0
 LI BOUND     C0000138       0
 LI BOUND     C0000139       0
 LI BOUND     C0000140       0
 LI BOUND     C0000141       0
 LI BOUND     C0000142       0
 LI BOUND     C0000143       0
 LI BOUND     C0000144       0
 LI BOUND     C0000145       0
 LI BOUND     C0000146       0
 LI BOUND     C0000147       0
 LI BOUND     C0000148       0
 LI BOUND     C0000149       0
 LI BOUND     C0000150       0
 LI BOUND     C0000151       0
 LI BOUND     C0000152       0
 LI BOUND     C0000153       0
 LI BOUND     C0000154       0
 LI BOUND     C0000155       0
 LI BOUND     C0000156       0
 LI BOUND     C0000157       0
 LI BOUND     C0000158       0
 LI BOUND     C0000159       0
 LI BOUND     C0000160       0
 LI BOUND     C0000161       0
 LI BOUND     C0000162       0
 LI BOUND     C0000163       0
 LI BOUND     C0000164       0
 LI BOUND     C0000165       0
 LI BOUND     C0000166       0
 LI BOUND     C0000167       0
 LI BOUND     C0000168       0
 LI BOUND     C0000169       0
 LI BOUND     C0000170       0
 LI BOUND     C0000171       0
 LI BOUND     C0000172       0
 LI BOUND     C0000173       0
 LI BOUND     C0000174       0
 LI BOUND     C0000175       0
 LI BOUND     C0000176       0
 LI BOUND     C0000177       0
 LI BOUND     C0000178       0
 LI BOUND     C0000179       0
ENDATA
