NAME          BLANK   
ROWS
 N  OBJROW
 L  R0000000
 L  R0000001
 L  R0000002
 L  R0000003
 L  R0000004
 L  R0000005
 L  R0000006
 L  R0000007
 L  R0000008
 L  R0000009
 L  R0000010
 L  R0000011
 L  R0000012
 L  R0000013
 L  R0000014
COLUMNS
    C0000000  OBJROW    9.             R0000000  25.         
    C0000000  R0000001  4.             R0000002  1.          
    C0000000  R0000003   -28.          R0000004   -31.       
    C0000000  R0000006  14.            R0000007  18.         
    C0000000  R0000008   -6.           R0000009   -18.       
    C0000000  R0000010  23.            R0000011  46.         
    C0000000  R0000012  21.            R0000013   -46.       
    C0000000  R0000014   -16.       
    C0000001  OBJROW     -47.          R0000003   -24.       
    C0000001  R0000004   -43.          R0000005   -31.       
    C0000001  R0000006  24.            R0000007  32.         
    C0000001  R0000008  40.            R0000009  36.         
    C0000001  R0000011  1.             R0000013   -13.       
    C0000001  R0000014   -32.       
    C0000002  OBJROW     -31.          R0000001   -24.       
    C0000002  R0000003   -32.          R0000004  7.          
    C0000002  R0000005  25.            R0000008   -45.       
    C0000002  R0000009   -3.           R0000010   -14.       
    C0000002  R0000011   -40.          R0000014   -28.       
    C0000003  OBJROW    34.            R0000001  4.          
    C0000003  R0000003  39.            R0000004  8.          
    C0000003  R0000006  13.            R0000007  31.         
    C0000003  R0000008   -33.          R0000009  30.         
    C0000003  R0000010  28.            R0000011   -28.       
    C0000003  R0000013   -22.          R0000014   -36.       
    C0000004  OBJROW     -10.          R0000002   -24.       
    C0000004  R0000003   -25.          R0000004  15.         
    C0000004  R0000006   -21.          R0000007  34.         
    C0000004  R0000008   -35.          R0000009  6.          
    C0000004  R0000010   -48.          R0000011   -6.        
    C0000004  R0000014   -7.        
    C0000005  OBJROW    32.            R0000000  10.         
    C0000005  R0000002  11.            R0000003   -8.        
    C0000005  R0000004   -11.          R0000006   -41.       
    C0000005  R0000008  40.            R0000009  8.          
    C0000005  R0000011  19.            R0000014  34.         
    C0000006  OBJROW    5.             R0000000   -22.       
    C0000006  R0000001  6.             R0000002   -37.       
    C0000006  R0000003   -50.          R0000004  23.         
    C0000006  R0000006  21.            R0000008   -2.        
    C0000006  R0000009   -6.           R0000010  37.         
    C0000006  R0000011  5.             R0000014   -11.       
    C0000007  OBJROW    43.            R0000000   -22.       
    C0000007  R0000001   -13.          R0000002   -8.        
    C0000007  R0000003  23.            R0000004   -41.       
    C0000007  R0000005  25.            R0000006  25.         
    C0000007  R0000007  26.            R0000008   -17.       
    C0000007  R0000009  40.            R0000011   -31.       
    C0000007  R0000012   -9.           R0000013   -31.       
    C0000007  R0000014  1.          
    C0000008  OBJROW    32.            R0000000  17.         
    C0000008  R0000001   -39.          R0000003   -21.       
    C0000008  R0000005   -32.          R0000007  37.         
    C0000008  R0000008  3.             R0000009   -39.       
    C0000008  R0000010   -11.          R0000011  47.         
    C0000008  R0000012   -25.          R0000013   -2.        
    C0000008  R0000014  15.         
    C0000009  OBJROW    25.            R0000001   -27.       
    C0000009  R0000003  16.            R0000004  46.         
    C0000009  R0000005  25.            R0000006  25.         
    C0000009  R0000007   -38.          R0000008  27.         
    C0000009  R0000009   -48.          R0000010  41.         
    C0000009  R0000011  23.            R0000012  1.          
    C0000009  R0000013   -36.          R0000014  39.         
    C0000010  OBJROW    36.            R0000001  45.         
    C0000010  R0000003   -40.          R0000004   -10.       
    C0000010  R0000005  28.            R0000006   -5.        
    C0000010  R0000007   -1.           R0000008   -23.       
    C0000010  R0000009   -18.          R0000010   -47.       
    C0000010  R0000011   -7.           R0000012  42.         
    C0000010  R0000013  15.            R0000014  12.         
    C0000011  OBJROW    13.            R0000001   -20.       
    C0000011  R0000003   -32.          R0000004   -18.       
    C0000011  R0000005  50.            R0000006   -4.        
    C0000011  R0000007  11.            R0000008  3.          
    C0000011  R0000009  16.            R0000010  16.         
    C0000011  R0000011  35.            R0000014   -45.       
    C0000012  OBJROW     -14.          R0000000  19.         
    C0000012  R0000003  38.            R0000004  7.          
    C0000012  R0000006  49.            R0000007   -48.       
    C0000012  R0000008  6.             R0000009   -21.       
    C0000012  R0000010  1.             R0000011   -32.       
    C0000012  R0000014   -27.       
    C0000013  OBJROW    39.            R0000001  23.         
    C0000013  R0000002  14.            R0000003  44.         
    C0000013  R0000004  14.            R0000005  45.         
    C0000013  R0000006  11.            R0000008   -36.       
    C0000013  R0000009   -27.          R0000010   -24.       
    C0000013  R0000011  27.            R0000014  26.         
    C0000014  OBJROW    28.            R0000001  35.         
    C0000014  R0000003   -9.           R0000006  28.         
    C0000014  R0000008   -34.          R0000009   -13.       
    C0000014  R0000010  7.             R0000011  26.         
    C0000014  R0000013  35.            R0000014   -5.        
    C0000015  OBJROW     -40.          R0000000   -21.       
    C0000015  R0000001  1.             R0000002  25.         
    C0000015  R0000003  45.            R0000004  6.          
    C0000015  R0000006   -18.          R0000008  3.          
    C0000015  R0000009  22.            R0000010  37.         
    C0000015  R0000011   -24.          R0000012  20.         
    C0000015  R0000014  6.          
    C0000016  OBJROW    4.             R0000000   -18.       
    C0000016  R0000003   -46.          R0000004   -30.       
    C0000016  R0000005  5.             R0000006   -19.       
    C0000016  R0000007  48.            R0000008  48.         
    C0000016  R0000010   -45.          R0000011   -16.       
    C0000016  R0000012   -20.          R0000013   -31.       
    C0000016  R0000014   -10.       
    C0000017  OBJROW     -1.           R0000001   -17.       
    C0000017  R0000002  42.            R0000003  39.         
    C0000017  R0000004  45.            R0000006   -16.       
    C0000017  R0000008  34.            R0000009  46.         
    C0000017  R0000010  30.            R0000011   -22.       
    C0000017  R0000012  50.            R0000013   -28.       
    C0000017  R0000014  5.          
    C0000018  OBJROW     -33.          R0000000  21.         
    C0000018  R0000001  13.            R0000003  47.         
    C0000018  R0000004  34.            R0000005   -35.       
    C0000018  R0000006  45.            R0000007   -45.       
    C0000018  R0000008  44.            R0000009  15.         
    C0000018  R0000010   -6.           R0000011   -10.       
    C0000018  R0000012  14.            R0000014  14.         
    C0000019  OBJROW     -24.          R0000001  42.         
    C0000019  R0000003   -36.          R0000004  27.         
    C0000019  R0000005   -38.          R0000006   -14.       
    C0000019  R0000008  23.            R0000009  41.         
    C0000019  R0000010  3.             R0000011   -34.       
    C0000019  R0000012   -35.          R0000013   -30.       
    C0000019  R0000014  13.         
RHS
    RHS       R0000000  115.           R0000001  124.        
    RHS       R0000002  113.           R0000003  10.         
    RHS       R0000004  243.           R0000005   -5.        
    RHS       R0000006  258.           R0000007  25.         
    RHS       R0000008  123.           R0000009  503.        
    RHS       R0000010  325.           R0000011   -149.      
    RHS       R0000012  77.            R0000013   -466.      
    RHS       R0000014   -225.      
BOUNDS
 UI BOUND     C0000000  500.        
 UI BOUND     C0000001  500.        
 UI BOUND     C0000002  500.        
 UI BOUND     C0000003  500.        
 UI BOUND     C0000004  500.        
 UI BOUND     C0000005  500.        
 UI BOUND     C0000006  500.        
 UI BOUND     C0000007  500.        
 UI BOUND     C0000008  500.        
 UI BOUND     C0000009  500.        
 UI BOUND     C0000010  500.        
 UI BOUND     C0000011  500.        
 UI BOUND     C0000012  500.        
 UI BOUND     C0000013  500.        
 UI BOUND     C0000014  500.        
 UI BOUND     C0000015  500.        
 UI BOUND     C0000016  500.        
 UI BOUND     C0000017  500.        
 UI BOUND     C0000018  500.        
 UI BOUND     C0000019  500.        
ENDATA
