NAME          BLANK   
ROWS
 N  OBJROW
 L  R0000000
 L  R0000001
 L  R0000002
 L  R0000003
 L  R0000004
 L  R0000005
 L  R0000006
 L  R0000007
 L  R0000008
 L  R0000009
 L  R0000010
 L  R0000011
 L  R0000012
 L  R0000013
 L  R0000014
COLUMNS
    C0000000  OBJROW    17.            R0000000   -4.        
    C0000000  R0000001   -11.          R0000002  3.          
    C0000000  R0000003  8.             R0000004  32.         
    C0000000  R0000006   -37.          R0000007   -18.       
    C0000000  R0000008  40.            R0000011  37.         
    C0000000  R0000012  12.            R0000014   -33.       
    C0000001  OBJROW     -25.          R0000000   -50.       
    C0000001  R0000002   -30.          R0000003   -21.       
    C0000001  R0000004   -35.          R0000005   -46.       
    C0000001  R0000007   -2.           R0000008  43.         
    C0000001  R0000011   -16.          R0000012  29.         
    C0000001  R0000013  46.            R0000014  23.         
    C0000002  OBJROW    5.             R0000004  43.         
    C0000002  R0000006   -16.          R0000007   -30.       
    C0000002  R0000008  24.            R0000010   -14.       
    C0000002  R0000011  8.             R0000013   -9.        
    C0000003  OBJROW    5.             R0000002  20.         
    C0000003  R0000003   -4.           R0000004   -4.        
    C0000003  R0000005   -26.          R0000006  40.         
    C0000003  R0000009  48.            R0000010   -7.        
    C0000003  R0000013   -12.          R0000014   -39.       
    C0000004  OBJROW    49.            R0000001  2.          
    C0000004  R0000002   -48.          R0000003   -26.       
    C0000004  R0000004   -45.          R0000005  31.         
    C0000004  R0000006  7.             R0000007   -10.       
    C0000004  R0000009   -38.          R0000010  48.         
    C0000004  R0000011   -12.          R0000014  10.         
    C0000005  OBJROW    37.            R0000000  36.         
    C0000005  R0000001  38.            R0000002   -36.       
    C0000005  R0000004   -35.          R0000005   -20.       
    C0000005  R0000006  22.            R0000007  44.         
    C0000005  R0000009   -16.          R0000010  11.         
    C0000005  R0000011  8.             R0000012  27.         
    C0000005  R0000014   -21.       
    C0000006  OBJROW     -1.           R0000000   -15.       
    C0000006  R0000001  42.            R0000002  1.          
    C0000006  R0000003   -9.           R0000004  41.         
    C0000006  R0000005  41.            R0000006   -30.       
    C0000006  R0000007  48.            R0000008   -37.       
    C0000006  R0000009  41.            R0000010   -11.       
    C0000006  R0000011  50.            R0000013  26.         
    C0000006  R0000014   -47.       
    C0000007  OBJROW    2.             R0000000  35.         
    C0000007  R0000002   -9.           R0000003   -31.       
    C0000007  R0000004   -39.          R0000005  42.         
    C0000007  R0000006  16.            R0000007  14.         
    C0000007  R0000008   -14.          R0000009  34.         
    C0000007  R0000010   -14.          R0000011  43.         
    C0000007  R0000012  14.            R0000013   -14.       
    C0000008  OBJROW    16.            R0000000  29.         
    C0000008  R0000001  35.            R0000002  32.         
    C0000008  R0000004  7.             R0000005  16.         
    C0000008  R0000006  13.            R0000007  5.          
    C0000008  R0000012  16.            R0000013   -33.       
    C0000008  R0000014  50.         
    C0000009  OBJROW     -34.          R0000000   -15.       
    C0000009  R0000002   -13.          R0000005  20.         
    C0000009  R0000006   -5.           R0000007  9.          
    C0000009  R0000008   -43.          R0000010   -42.       
    C0000009  R0000011   -13.          R0000014   -12.       
    C0000010  OBJROW    3.             R0000002   -28.       
    C0000010  R0000003  5.             R0000005   -8.        
    C0000010  R0000006   -34.          R0000007   -2.        
    C0000010  R0000011  50.            R0000012   -7.        
    C0000010  R0000013   -13.          R0000014  4.          
    C0000011  OBJROW    20.            R0000000  9.          
    C0000011  R0000001  17.            R0000002  1.          
    C0000011  R0000004   -18.          R0000005  3.          
    C0000011  R0000006   -13.          R0000007  4.          
    C0000011  R0000008   -9.           R0000009   -8.        
    C0000011  R0000010  40.            R0000011  48.         
    C0000011  R0000013  4.             R0000014  12.         
    C0000012  OBJROW     -41.          R0000001   -12.       
    C0000012  R0000002  47.            R0000006   -41.       
    C0000012  R0000007  44.            R0000008  38.         
    C0000012  R0000009  38.            R0000010   -11.       
    C0000012  R0000011   -29.          R0000013   -46.       
    C0000012  R0000014   -25.       
    C0000013  OBJROW     -23.          R0000002   -9.        
    C0000013  R0000003  34.            R0000005  41.         
    C0000013  R0000006  46.            R0000007  29.         
    C0000013  R0000008   -27.          R0000009   -42.       
    C0000013  R0000011  8.             R0000012  43.         
    C0000013  R0000013  14.            R0000014   -34.       
    C0000014  OBJROW    10.            R0000000  36.         
    C0000014  R0000001  25.            R0000002   -32.       
    C0000014  R0000004   -25.          R0000005  23.         
    C0000014  R0000006   -16.          R0000007  6.          
    C0000014  R0000008  31.            R0000009  28.         
    C0000015  OBJROW     -11.          R0000001  47.         
    C0000015  R0000002  33.            R0000003   -1.        
    C0000015  R0000004   -49.          R0000005   -1.        
    C0000015  R0000006   -19.          R0000007   -29.       
    C0000015  R0000008  6.             R0000011  22.         
    C0000015  R0000013   -32.          R0000014  33.         
    C0000016  OBJROW     -42.          R0000000  49.         
    C0000016  R0000001  33.            R0000002   -40.       
    C0000016  R0000003   -31.          R0000004  35.         
    C0000016  R0000006   -42.          R0000007   -32.       
    C0000016  R0000008  32.            R0000009  18.         
    C0000016  R0000010   -44.          R0000011   -44.       
    C0000016  R0000014  47.         
    C0000017  OBJROW     -25.          R0000000  41.         
    C0000017  R0000001   -1.           R0000002  21.         
    C0000017  R0000003  10.            R0000004  14.         
    C0000017  R0000006   -42.          R0000007  43.         
    C0000017  R0000008   -1.           R0000010   -16.       
    C0000017  R0000011   -34.          R0000014  28.         
    C0000018  OBJROW    35.            R0000000   -46.       
    C0000018  R0000002  6.             R0000004   -18.       
    C0000018  R0000005   -50.          R0000006  3.          
    C0000018  R0000007  39.            R0000010  32.         
    C0000018  R0000011   -22.          R0000012  36.         
    C0000018  R0000013   -37.          R0000014   -15.       
    C0000019  OBJROW     -8.           R0000000   -42.       
    C0000019  R0000001  21.            R0000002  24.         
    C0000019  R0000004   -10.          R0000005   -20.       
    C0000019  R0000006  23.            R0000007   -1.        
    C0000019  R0000008  48.            R0000009  26.         
    C0000019  R0000011  33.            R0000013  5.          
    C0000019  R0000014  9.          
    C0000020  OBJROW     -46.          R0000000  2.          
    C0000020  R0000001   -8.           R0000003  48.         
    C0000020  R0000004   -10.          R0000005   -50.       
    C0000020  R0000006   -50.          R0000007   -21.       
    C0000020  R0000008  24.            R0000010   -6.        
    C0000020  R0000011  28.            R0000012   -24.       
    C0000020  R0000014  9.          
    C0000021  OBJROW    2.             R0000000  32.         
    C0000021  R0000001   -22.          R0000003  30.         
    C0000021  R0000004   -49.          R0000005   -5.        
    C0000021  R0000006  22.            R0000007  13.         
    C0000021  R0000008  39.            R0000009  13.         
    C0000021  R0000011  15.            R0000012  30.         
    C0000021  R0000014   -38.       
    C0000022  OBJROW    13.            R0000000  29.         
    C0000022  R0000001  1.             R0000002   -2.        
    C0000022  R0000003   -9.           R0000004   -9.        
    C0000022  R0000005  31.            R0000006   -17.       
    C0000022  R0000007   -34.          R0000009  23.         
    C0000022  R0000011   -50.          R0000012   -13.       
    C0000022  R0000013   -35.       
    C0000023  OBJROW     -32.          R0000001  38.         
    C0000023  R0000005   -42.          R0000006   -31.       
    C0000023  R0000009   -49.          R0000010   -27.       
    C0000023  R0000011   -34.          R0000013   -36.       
    C0000023  R0000014  17.         
    C0000024  OBJROW    27.            R0000001   -40.       
    C0000024  R0000004   -28.          R0000006   -49.       
    C0000024  R0000010  40.            R0000011   -27.       
    C0000024  R0000012  48.            R0000013   -4.        
    C0000025  OBJROW    37.            R0000001   -2.        
    C0000025  R0000003  3.             R0000004  49.         
    C0000025  R0000005   -16.          R0000006  8.          
    C0000025  R0000007   -14.          R0000008   -5.        
    C0000025  R0000012  8.             R0000013  20.         
    C0000025  R0000014  2.          
    C0000026  OBJROW     -5.           R0000001   -8.        
    C0000026  R0000003  36.            R0000004  45.         
    C0000026  R0000005  27.            R0000008  8.          
    C0000026  R0000009   -18.          R0000010   -4.        
    C0000026  R0000011   -38.          R0000014  50.         
    C0000027  OBJROW    48.            R0000000   -13.       
    C0000027  R0000002  10.            R0000003  5.          
    C0000027  R0000005  21.            R0000006  10.         
    C0000027  R0000007  30.            R0000008   -41.       
    C0000027  R0000010   -21.          R0000011   -41.       
    C0000027  R0000013   -12.       
    C0000028  OBJROW     -8.           R0000005  48.         
    C0000028  R0000006  21.            R0000007  50.         
    C0000028  R0000008   -20.          R0000009  41.         
    C0000028  R0000010   -1.           R0000011  46.         
    C0000028  R0000012   -26.          R0000014   -39.       
    C0000029  OBJROW    16.            R0000001   -1.        
    C0000029  R0000002   -8.           R0000004   -23.       
    C0000029  R0000005  19.            R0000006  18.         
    C0000029  R0000007  27.            R0000008  28.         
    C0000029  R0000010   -33.          R0000011  22.         
    C0000029  R0000013  40.            R0000014  12.         
RHS
    RHS       R0000000  355.           R0000001  656.        
    RHS       R0000002   -84.          R0000003   -51.       
    RHS       R0000004   -379.         R0000005  212.        
    RHS       R0000006   -431.         R0000007  429.        
    RHS       R0000008   -18.          R0000009  453.        
    RHS       R0000010   -229.         R0000011  162.        
    RHS       R0000012  294.           R0000013   -599.      
    RHS       R0000014   -127.      
BOUNDS
 UI BOUND     C0000000  500.        
 UI BOUND     C0000001  500.        
 UI BOUND     C0000002  500.        
 UI BOUND     C0000003  500.        
 UI BOUND     C0000004  500.        
 UI BOUND     C0000005  500.        
 UI BOUND     C0000006  500.        
 UI BOUND     C0000007  500.        
 UI BOUND     C0000008  500.        
 UI BOUND     C0000009  500.        
 UI BOUND     C0000010  500.        
 UI BOUND     C0000011  500.        
 UI BOUND     C0000012  500.        
 UI BOUND     C0000013  500.        
 UI BOUND     C0000014  500.        
 UI BOUND     C0000015  500.        
 UI BOUND     C0000016  500.        
 UI BOUND     C0000017  500.        
 UI BOUND     C0000018  500.        
 UI BOUND     C0000019  500.        
 UI BOUND     C0000020  500.        
 UI BOUND     C0000021  500.        
 UI BOUND     C0000022  500.        
 UI BOUND     C0000023  500.        
 UI BOUND     C0000024  500.        
 UI BOUND     C0000025  500.        
 UI BOUND     C0000026  500.        
 UI BOUND     C0000027  500.        
 UI BOUND     C0000028  500.        
 UI BOUND     C0000029  500.        
ENDATA
