NAME          BLANK   
ROWS
 N  OBJROW
 L  R0000000
 L  R0000001
 L  R0000002
 L  R0000003
 L  R0000004
 L  R0000005
 L  R0000006
 L  R0000007
 L  R0000008
 L  R0000009
COLUMNS
    C0000000  OBJROW    25.            R0000000  36.         
    C0000000  R0000001  32.            R0000002   -14.       
    C0000000  R0000004  14.            R0000005  18.         
    C0000000  R0000006  39.            R0000007   -12.       
    C0000000  R0000008   -31.          R0000009  49.         
    C0000001  OBJROW    8.             R0000000   -7.        
    C0000001  R0000001  40.            R0000002   -50.       
    C0000001  R0000004   -10.          R0000006   -8.        
    C0000001  R0000007  49.            R0000008   -40.       
    C0000001  R0000009   -4.        
    C0000002  OBJROW     -42.          R0000001  37.         
    C0000002  R0000002  15.            R0000003  32.         
    C0000002  R0000004  29.            R0000006   -18.       
    C0000002  R0000007  41.            R0000008  31.         
    C0000002  R0000009  24.         
    C0000003  OBJROW    36.            R0000001  44.         
    C0000003  R0000002   -4.           R0000004   -48.       
    C0000003  R0000006   -38.          R0000007  19.         
    C0000003  R0000008   -5.           R0000009   -14.       
    C0000004  OBJROW     -35.          R0000000   -29.       
    C0000004  R0000001   -42.          R0000002   -18.       
    C0000004  R0000004   -16.          R0000006  27.         
    C0000004  R0000007   -48.       
    C0000005  OBJROW    12.            R0000001  17.         
    C0000005  R0000002   -6.           R0000003  18.         
    C0000005  R0000004   -40.          R0000006   -8.        
    C0000005  R0000007  44.            R0000008   -9.        
    C0000005  R0000009  10.         
    C0000006  OBJROW     -12.          R0000000   -6.        
    C0000006  R0000003   -2.           R0000004  4.          
    C0000006  R0000006  27.            R0000007  18.         
    C0000006  R0000008  29.            R0000009  44.         
    C0000007  OBJROW     -30.          R0000001   -26.       
    C0000007  R0000002  20.            R0000003  21.         
    C0000007  R0000004   -3.           R0000005  18.         
    C0000007  R0000006  13.            R0000007   -32.       
    C0000007  R0000008   -50.       
    C0000008  OBJROW    24.            R0000001  50.         
    C0000008  R0000002   -31.          R0000003   -22.       
    C0000008  R0000004   -26.          R0000006   -37.       
    C0000008  R0000007  13.            R0000008  46.         
    C0000009  OBJROW    49.            R0000000   -13.       
    C0000009  R0000001   -33.          R0000002  30.         
    C0000009  R0000003  43.            R0000004  35.         
    C0000009  R0000005   -10.          R0000007   -2.        
    C0000009  R0000008   -1.           R0000009  5.          
    C0000010  OBJROW     -6.           R0000001  4.          
    C0000010  R0000002  40.            R0000003  16.         
    C0000010  R0000004  48.            R0000006  29.         
    C0000010  R0000007  20.            R0000008   -30.       
    C0000010  R0000009  44.         
    C0000011  OBJROW     -14.          R0000000   -50.       
    C0000011  R0000001   -34.          R0000002  29.         
    C0000011  R0000003   -41.          R0000004   -9.        
    C0000011  R0000005  19.            R0000006  33.         
    C0000011  R0000007   -39.          R0000008   -30.       
    C0000011  R0000009   -1.        
    C0000012  OBJROW    24.            R0000000  31.         
    C0000012  R0000004  38.            R0000005  28.         
    C0000012  R0000006   -15.          R0000007  41.         
    C0000012  R0000008   -34.          R0000009   -15.       
    C0000013  OBJROW    26.            R0000001   -33.       
    C0000013  R0000002  12.            R0000003  24.         
    C0000013  R0000004  17.            R0000005   -10.       
    C0000013  R0000006   -48.          R0000007  24.         
    C0000013  R0000008   -33.          R0000009  26.         
    C0000014  OBJROW    12.            R0000002  21.         
    C0000014  R0000003  19.            R0000004  7.          
    C0000014  R0000006   -19.          R0000007  8.          
    C0000014  R0000008   -31.       
    C0000015  OBJROW     -9.           R0000001  22.         
    C0000015  R0000002  26.            R0000004  16.         
    C0000015  R0000005   -26.          R0000006   -3.        
    C0000015  R0000007   -32.          R0000008  18.         
    C0000016  OBJROW    25.            R0000000  14.         
    C0000016  R0000003   -23.          R0000004   -28.       
    C0000016  R0000005   -19.          R0000006   -6.        
    C0000016  R0000007   -42.          R0000008  33.         
    C0000016  R0000009   -11.       
    C0000017  OBJROW     -8.           R0000002  37.         
    C0000017  R0000003   -47.          R0000004   -6.        
    C0000017  R0000005  11.            R0000009   -40.       
    C0000018  OBJROW     -1.           R0000002   -21.       
    C0000018  R0000003  16.            R0000004   -45.       
    C0000018  R0000005   -14.          R0000006   -46.       
    C0000018  R0000007   -6.           R0000008   -41.       
    C0000019  OBJROW    48.            R0000004   -19.       
    C0000019  R0000005  23.            R0000008   -50.       
    C0000019  R0000009   -12.       
    C0000020  OBJROW    28.            R0000000   -29.       
    C0000020  R0000002   -8.           R0000003   -18.       
    C0000020  R0000004  34.            R0000005   -9.        
    C0000020  R0000006   -47.          R0000007  11.         
    C0000020  R0000008   -43.          R0000009  7.          
    C0000021  OBJROW    2.             R0000001   -3.        
    C0000021  R0000002  32.            R0000003  50.         
    C0000021  R0000004   -43.          R0000006  31.         
    C0000021  R0000007   -49.       
    C0000022  OBJROW    8.             R0000001   -12.       
    C0000022  R0000002   -43.          R0000004   -31.       
    C0000022  R0000006  49.            R0000007   -40.       
    C0000022  R0000008  17.         
    C0000023  OBJROW    35.            R0000000  37.         
    C0000023  R0000001   -33.          R0000002  14.         
    C0000023  R0000004   -9.           R0000005  46.         
    C0000023  R0000006  30.            R0000007  5.          
    C0000023  R0000008  10.         
    C0000024  OBJROW    21.            R0000000   -24.       
    C0000024  R0000001   -49.          R0000002  38.         
    C0000024  R0000003  39.            R0000004  38.         
    C0000024  R0000006  15.            R0000008  46.         
    C0000024  R0000009  39.         
RHS
    RHS       R0000000  15.            R0000001  90.         
    RHS       R0000002  155.           R0000003  335.        
    RHS       R0000004   -271.         R0000005  262.        
    RHS       R0000006   -62.          R0000007  89.         
    RHS       R0000008   -802.         R0000009  11.         
BOUNDS
 UI BOUND     C0000000  500.        
 UI BOUND     C0000001  500.        
 UI BOUND     C0000002  500.        
 UI BOUND     C0000003  500.        
 UI BOUND     C0000004  500.        
 UI BOUND     C0000005  500.        
 UI BOUND     C0000006  500.        
 UI BOUND     C0000007  500.        
 UI BOUND     C0000008  500.        
 UI BOUND     C0000009  500.        
 UI BOUND     C0000010  500.        
 UI BOUND     C0000011  500.        
 UI BOUND     C0000012  500.        
 UI BOUND     C0000013  500.        
 UI BOUND     C0000014  500.        
 UI BOUND     C0000015  500.        
 UI BOUND     C0000016  500.        
 UI BOUND     C0000017  500.        
 UI BOUND     C0000018  500.        
 UI BOUND     C0000019  500.        
 UI BOUND     C0000020  500.        
 UI BOUND     C0000021  500.        
 UI BOUND     C0000022  500.        
 UI BOUND     C0000023  500.        
 UI BOUND     C0000024  500.        
ENDATA
