NAME          BLANK   
ROWS
 N  OBJROW
 L  R0000000
 L  R0000001
 L  R0000002
 L  R0000003
 L  R0000004
 L  R0000005
 L  R0000006
 L  R0000007
 L  R0000008
 L  R0000009
 L  R0000010
 L  R0000011
 L  R0000012
 L  R0000013
 L  R0000014
COLUMNS
    C0000000  OBJROW     -38.          R0000000   -28.       
    C0000000  R0000001   -37.          R0000003  29.         
    C0000000  R0000004   -21.          R0000005   -4.        
    C0000000  R0000006  2.             R0000007   -9.        
    C0000000  R0000010   -37.          R0000011   -36.       
    C0000000  R0000012   -39.          R0000013   -29.       
    C0000001  OBJROW     -39.          R0000000  31.         
    C0000001  R0000002   -37.          R0000003  46.         
    C0000001  R0000004  40.            R0000005  41.         
    C0000001  R0000006   -37.          R0000007   -7.        
    C0000001  R0000008   -24.          R0000009  48.         
    C0000001  R0000011  23.            R0000012   -24.       
    C0000001  R0000014   -1.        
    C0000002  OBJROW    7.             R0000000  42.         
    C0000002  R0000001  6.             R0000002  12.         
    C0000002  R0000003   -16.          R0000004  36.         
    C0000002  R0000006   -23.          R0000008   -4.        
    C0000002  R0000009  12.            R0000010  7.          
    C0000002  R0000011  16.            R0000012  32.         
    C0000002  R0000013  28.         
    C0000003  OBJROW     -35.          R0000000   -24.       
    C0000003  R0000001   -41.          R0000003  35.         
    C0000003  R0000004   -8.           R0000006  44.         
    C0000003  R0000007   -19.          R0000008  47.         
    C0000003  R0000009   -17.          R0000010  48.         
    C0000003  R0000011  11.            R0000013  12.         
    C0000004  OBJROW     -10.          R0000000   -32.       
    C0000004  R0000001  37.            R0000002   -34.       
    C0000004  R0000004   -47.          R0000006   -29.       
    C0000004  R0000007  13.            R0000008  25.         
    C0000004  R0000011   -34.          R0000012  11.         
    C0000004  R0000013   -29.          R0000014   -21.       
    C0000005  OBJROW     -3.           R0000000  34.         
    C0000005  R0000001  11.            R0000002  14.         
    C0000005  R0000003  40.            R0000004   -9.        
    C0000005  R0000005  21.            R0000006   -37.       
    C0000005  R0000007  35.            R0000008  42.         
    C0000005  R0000009   -34.          R0000010   -17.       
    C0000005  R0000011   -39.          R0000012  27.         
    C0000006  OBJROW    24.            R0000000   -43.       
    C0000006  R0000001  42.            R0000002   -24.       
    C0000006  R0000003  26.            R0000004   -36.       
    C0000006  R0000005   -40.          R0000006   -47.       
    C0000006  R0000007  47.            R0000008   -48.       
    C0000006  R0000009   -33.          R0000011   -31.       
    C0000006  R0000012   -32.          R0000013   -12.       
    C0000007  OBJROW     -34.          R0000000   -2.        
    C0000007  R0000001   -5.           R0000003  41.         
    C0000007  R0000004   -12.          R0000006   -38.       
    C0000007  R0000007  40.            R0000008  39.         
    C0000007  R0000009  30.            R0000010   -24.       
    C0000007  R0000011  7.             R0000012  37.         
    C0000007  R0000013  12.         
    C0000008  OBJROW    8.             R0000000   -7.        
    C0000008  R0000001  27.            R0000003   -29.       
    C0000008  R0000004  50.            R0000005   -38.       
    C0000008  R0000006  43.            R0000007  30.         
    C0000008  R0000008  16.            R0000009   -3.        
    C0000008  R0000010   -7.           R0000011   -45.       
    C0000008  R0000014  26.         
    C0000009  OBJROW     -37.          R0000001  43.         
    C0000009  R0000003   -38.          R0000004  6.          
    C0000009  R0000006  6.             R0000007  49.         
    C0000009  R0000008  35.            R0000009   -15.       
    C0000009  R0000011   -2.           R0000014   -45.       
    C0000010  OBJROW     -45.          R0000000  13.         
    C0000010  R0000001  19.            R0000002   -34.       
    C0000010  R0000003  39.            R0000004  3.          
    C0000010  R0000006  33.            R0000007   -16.       
    C0000010  R0000008   -11.          R0000009  11.         
    C0000010  R0000010  22.            R0000011  21.         
    C0000010  R0000013   -29.          R0000014   -14.       
    C0000011  OBJROW    21.            R0000000   -13.       
    C0000011  R0000001   -10.          R0000003  19.         
    C0000011  R0000004  19.            R0000005   -34.       
    C0000011  R0000006   -37.          R0000007   -28.       
    C0000011  R0000008  34.            R0000009   -15.       
    C0000011  R0000010  5.             R0000011   -50.       
    C0000011  R0000012  45.            R0000013  43.         
    C0000011  R0000014   -26.       
    C0000012  OBJROW     -13.          R0000000   -14.       
    C0000012  R0000001  45.            R0000004  50.         
    C0000012  R0000006   -9.           R0000007  14.         
    C0000012  R0000009   -23.          R0000010   -42.       
    C0000012  R0000011   -5.           R0000013  28.         
    C0000013  OBJROW     -35.          R0000001   -42.       
    C0000013  R0000003  30.            R0000005   -17.       
    C0000013  R0000006  26.            R0000007  38.         
    C0000013  R0000008  20.            R0000009   -26.       
    C0000013  R0000011  13.         
    C0000014  OBJROW     -8.           R0000001  35.         
    C0000014  R0000002   -16.          R0000003  28.         
    C0000014  R0000004  5.             R0000005   -38.       
    C0000014  R0000006  14.            R0000007   -26.       
    C0000014  R0000008  4.             R0000009  9.          
    C0000014  R0000010  30.            R0000011  9.          
    C0000015  OBJROW    3.             R0000002  40.         
    C0000015  R0000003   -48.          R0000004   -25.       
    C0000015  R0000006   -16.          R0000007   -43.       
    C0000015  R0000008  12.            R0000009  40.         
    C0000015  R0000011   -16.          R0000013  46.         
    C0000015  R0000014   -36.       
    C0000016  OBJROW     -6.           R0000000  23.         
    C0000016  R0000001  43.            R0000003  19.         
    C0000016  R0000004   -20.          R0000006   -35.       
    C0000016  R0000007   -23.          R0000008   -3.        
    C0000016  R0000009   -4.           R0000010   -9.        
    C0000016  R0000013   -35.       
    C0000017  OBJROW     -30.          R0000000  7.          
    C0000017  R0000001  21.            R0000002  28.         
    C0000017  R0000003  35.            R0000005  38.         
    C0000017  R0000006   -36.          R0000007   -30.       
    C0000017  R0000008   -28.          R0000010  1.          
    C0000017  R0000011  2.             R0000012  42.         
    C0000017  R0000014   -19.       
    C0000018  OBJROW     -26.          R0000000  24.         
    C0000018  R0000001   -39.          R0000002   -27.       
    C0000018  R0000003   -26.          R0000004   -16.       
    C0000018  R0000006  44.            R0000008   -20.       
    C0000018  R0000010  42.            R0000011  30.         
    C0000018  R0000013  30.         
    C0000019  OBJROW    12.            R0000000  45.         
    C0000019  R0000001  28.            R0000003  50.         
    C0000019  R0000004   -18.          R0000005   -48.       
    C0000019  R0000006   -14.          R0000007  10.         
    C0000019  R0000008   -47.          R0000009  49.         
    C0000019  R0000010   -15.          R0000011  19.         
    C0000019  R0000012   -31.          R0000013   -12.       
    C0000019  R0000014  18.         
    C0000020  OBJROW    1.             R0000000   -48.       
    C0000020  R0000001   -3.           R0000002   -26.       
    C0000020  R0000003   -4.           R0000004   -46.       
    C0000020  R0000005   -41.          R0000006   -42.       
    C0000020  R0000007   -48.          R0000008  32.         
    C0000020  R0000010  6.             R0000011  32.         
    C0000020  R0000013  50.         
    C0000021  OBJROW    45.            R0000001   -34.       
    C0000021  R0000003   -36.          R0000004  41.         
    C0000021  R0000006  35.            R0000007   -21.       
    C0000021  R0000008  1.             R0000009   -17.       
    C0000021  R0000010   -1.           R0000011   -43.       
    C0000022  OBJROW     -17.          R0000000   -10.       
    C0000022  R0000002   -12.          R0000004  41.         
    C0000022  R0000006  5.             R0000008   -36.       
    C0000022  R0000009   -35.          R0000011   -1.        
    C0000022  R0000012   -47.          R0000013   -26.       
    C0000023  OBJROW    33.            R0000000  1.          
    C0000023  R0000001  29.            R0000003  18.         
    C0000023  R0000004  34.            R0000006  21.         
    C0000023  R0000007   -20.          R0000009  47.         
    C0000023  R0000011  1.             R0000013  43.         
    C0000023  R0000014  31.         
    C0000024  OBJROW     -37.          R0000000  45.         
    C0000024  R0000001   -1.           R0000002   -24.       
    C0000024  R0000003  38.            R0000004   -41.       
    C0000024  R0000006  8.             R0000008  11.         
    C0000024  R0000009   -48.          R0000010  20.         
    C0000024  R0000012   -34.       
    C0000025  OBJROW    44.            R0000001   -42.       
    C0000025  R0000002  9.             R0000003   -29.       
    C0000025  R0000004  13.            R0000005  47.         
    C0000025  R0000006   -46.          R0000007   -35.       
    C0000025  R0000008   -8.           R0000010  32.         
    C0000025  R0000011   -42.          R0000012  24.         
    C0000025  R0000013  28.         
    C0000026  OBJROW    23.            R0000000  35.         
    C0000026  R0000001   -37.          R0000002  16.         
    C0000026  R0000003   -25.          R0000004   -16.       
    C0000026  R0000006   -25.          R0000007  18.         
    C0000026  R0000008  38.            R0000009  3.          
    C0000026  R0000010  49.            R0000011  15.         
    C0000026  R0000012  49.            R0000013   -49.       
    C0000026  R0000014  39.         
    C0000027  OBJROW     -31.          R0000000   -10.       
    C0000027  R0000003  25.            R0000004  48.         
    C0000027  R0000006  41.            R0000008   -25.       
    C0000027  R0000009  22.            R0000010  11.         
    C0000027  R0000011   -27.          R0000013  35.         
    C0000027  R0000014   -15.       
    C0000028  OBJROW     -14.          R0000001   -32.       
    C0000028  R0000003   -15.          R0000004  46.         
    C0000028  R0000006   -3.           R0000007   -21.       
    C0000028  R0000008  14.            R0000009  30.         
    C0000028  R0000010  2.             R0000011   -30.       
    C0000028  R0000014   -44.       
    C0000029  OBJROW     -15.          R0000000   -49.       
    C0000029  R0000001  23.            R0000002   -40.       
    C0000029  R0000003   -24.          R0000004   -40.       
    C0000029  R0000005   -41.          R0000006   -4.        
    C0000029  R0000007   -28.          R0000008   -4.        
    C0000029  R0000009   -22.          R0000011  20.         
    C0000029  R0000014   -33.       
RHS
    RHS       R0000000  107.           R0000001  311.        
    RHS       R0000002   -492.         R0000003  359.        
    RHS       R0000004   -102.         R0000005   -560.      
    RHS       R0000006   -418.         R0000007  68.         
    RHS       R0000008  144.           R0000009   -77.       
    RHS       R0000010  34.            R0000011   -47.       
    RHS       R0000012  89.            R0000013  503.        
    RHS       R0000014   -149.      
BOUNDS
 UI BOUND     C0000000  500.        
 UI BOUND     C0000001  500.        
 UI BOUND     C0000002  500.        
 UI BOUND     C0000003  500.        
 UI BOUND     C0000004  500.        
 UI BOUND     C0000005  500.        
 UI BOUND     C0000006  500.        
 UI BOUND     C0000007  500.        
 UI BOUND     C0000008  500.        
 UI BOUND     C0000009  500.        
 UI BOUND     C0000010  500.        
 UI BOUND     C0000011  500.        
 UI BOUND     C0000012  500.        
 UI BOUND     C0000013  500.        
 UI BOUND     C0000014  500.        
 UI BOUND     C0000015  500.        
 UI BOUND     C0000016  500.        
 UI BOUND     C0000017  500.        
 UI BOUND     C0000018  500.        
 UI BOUND     C0000019  500.        
 UI BOUND     C0000020  500.        
 UI BOUND     C0000021  500.        
 UI BOUND     C0000022  500.        
 UI BOUND     C0000023  500.        
 UI BOUND     C0000024  500.        
 UI BOUND     C0000025  500.        
 UI BOUND     C0000026  500.        
 UI BOUND     C0000027  500.        
 UI BOUND     C0000028  500.        
 UI BOUND     C0000029  500.        
ENDATA
