NAME          BLANK   
ROWS
 N  OBJROW
 L  R0000000
 L  R0000001
 L  R0000002
 L  R0000003
 L  R0000004
 L  R0000005
 L  R0000006
 L  R0000007
 L  R0000008
 L  R0000009
COLUMNS
    C0000000  OBJROW     -42.          R0000001   -12.       
    C0000000  R0000002   -9.           R0000003  29.         
    C0000000  R0000004   -24.          R0000006  19.         
    C0000000  R0000007  18.            R0000008  37.         
    C0000001  OBJROW     -8.           R0000000   -31.       
    C0000001  R0000002   -13.          R0000003  44.         
    C0000001  R0000004  25.            R0000006   -48.       
    C0000001  R0000007  3.             R0000009   -19.       
    C0000002  OBJROW     -7.           R0000000  17.         
    C0000002  R0000003   -2.           R0000004   -26.       
    C0000002  R0000006  17.            R0000007  32.         
    C0000002  R0000009   -43.       
    C0000003  OBJROW     -13.          R0000001   -48.       
    C0000003  R0000002   -20.          R0000004   -35.       
    C0000003  R0000005   -9.           R0000006   -1.        
    C0000003  R0000007   -46.          R0000009   -33.       
    C0000004  OBJROW    42.            R0000000   -43.       
    C0000004  R0000002   -47.          R0000003  4.          
    C0000004  R0000004  35.            R0000005  35.         
    C0000004  R0000006   -47.          R0000007  44.         
    C0000004  R0000009   -43.       
    C0000005  OBJROW    8.             R0000003   -24.       
    C0000005  R0000004  17.            R0000005  42.         
    C0000005  R0000006  32.            R0000007   -1.        
    C0000005  R0000008  19.         
    C0000006  OBJROW    20.            R0000000  12.         
    C0000006  R0000001   -8.           R0000002  16.         
    C0000006  R0000004   -37.          R0000006  5.          
    C0000006  R0000007  44.            R0000008   -11.       
    C0000006  R0000009  27.         
    C0000007  OBJROW    44.            R0000000   -7.        
    C0000007  R0000001  12.            R0000002   -13.       
    C0000007  R0000003  4.             R0000004   -36.       
    C0000007  R0000006   -44.          R0000007  44.         
    C0000007  R0000009  45.         
    C0000008  OBJROW     -10.          R0000000   -44.       
    C0000008  R0000002  17.            R0000004   -2.        
    C0000008  R0000005  47.            R0000006  39.         
    C0000008  R0000007   -50.          R0000008  33.         
    C0000009  OBJROW    11.            R0000000   -23.       
    C0000009  R0000003   -6.           R0000004  31.         
    C0000009  R0000005  15.            R0000006   -29.       
    C0000009  R0000007  24.         
    C0000010  OBJROW    2.             R0000000   -50.       
    C0000010  R0000002   -35.          R0000004   -5.        
    C0000010  R0000005   -17.          R0000007  21.         
    C0000010  R0000008  5.             R0000009  11.         
    C0000011  OBJROW    29.            R0000000   -20.       
    C0000011  R0000002   -8.           R0000004  26.         
    C0000011  R0000007   -15.          R0000008   -42.       
    C0000011  R0000009   -50.       
    C0000012  OBJROW    26.            R0000000   -14.       
    C0000012  R0000001   -40.          R0000003  31.         
    C0000012  R0000004   -31.          R0000006  35.         
    C0000012  R0000007   -14.          R0000008   -33.       
    C0000012  R0000009  17.         
    C0000013  OBJROW    32.            R0000000  15.         
    C0000013  R0000002   -33.          R0000004   -24.       
    C0000013  R0000006  13.            R0000007   -19.       
    C0000013  R0000008  24.            R0000009  29.         
    C0000014  OBJROW     -28.          R0000000  6.          
    C0000014  R0000002  44.            R0000004   -10.       
    C0000014  R0000007   -21.          R0000008   -48.       
    C0000014  R0000009   -15.       
    C0000015  OBJROW    33.            R0000000   -26.       
    C0000015  R0000001   -3.           R0000002   -42.       
    C0000015  R0000003  12.            R0000004   -33.       
    C0000015  R0000005   -41.          R0000006  40.         
    C0000015  R0000007   -26.       
    C0000016  OBJROW     -8.           R0000000   -37.       
    C0000016  R0000002   -49.          R0000003  42.         
    C0000016  R0000005   -44.          R0000006   -20.       
    C0000016  R0000007  47.            R0000008  23.         
    C0000016  R0000009   -33.       
    C0000017  OBJROW     -3.           R0000000   -12.       
    C0000017  R0000003  37.            R0000004   -14.       
    C0000017  R0000005   -8.           R0000006  22.         
    C0000017  R0000007   -4.        
    C0000018  OBJROW    2.             R0000000   -23.       
    C0000018  R0000004   -31.          R0000007   -17.       
    C0000018  R0000008  50.         
    C0000019  OBJROW     -28.          R0000000   -13.       
    C0000019  R0000001   -25.          R0000002   -10.       
    C0000019  R0000003   -28.          R0000004  45.         
    C0000019  R0000006   -49.          R0000007  3.          
    C0000019  R0000008  2.             R0000009  49.         
    C0000020  OBJROW     -11.          R0000000  25.         
    C0000020  R0000001  40.            R0000002   -35.       
    C0000020  R0000003  49.            R0000004  33.         
    C0000020  R0000005   -46.          R0000006  1.          
    C0000020  R0000007  15.            R0000008   -18.       
    C0000020  R0000009   -47.       
    C0000021  OBJROW    26.            R0000000  44.         
    C0000021  R0000001  22.            R0000002  31.         
    C0000021  R0000003  28.            R0000004   -28.       
    C0000021  R0000006   -12.          R0000007  12.         
    C0000022  OBJROW    43.            R0000001  19.         
    C0000022  R0000002  39.            R0000004   -32.       
    C0000022  R0000006  5.             R0000007  21.         
    C0000022  R0000008   -8.           R0000009  37.         
    C0000023  OBJROW    26.            R0000002   -1.        
    C0000023  R0000003  48.            R0000004  21.         
    C0000023  R0000006   -2.           R0000007  42.         
    C0000023  R0000008   -50.          R0000009   -22.       
    C0000024  OBJROW     -49.          R0000002  40.         
    C0000024  R0000004  11.            R0000006  4.          
    C0000024  R0000007   -8.           R0000008   -28.       
    C0000024  R0000009   -5.        
    C0000025  OBJROW     -30.          R0000000  19.         
    C0000025  R0000003   -38.          R0000004  2.          
    C0000025  R0000006  10.            R0000007  32.         
    C0000025  R0000008  15.         
    C0000026  OBJROW    4.             R0000000   -6.        
    C0000026  R0000001  8.             R0000002  3.          
    C0000026  R0000004  9.             R0000005   -23.       
    C0000026  R0000006  19.            R0000007   -17.       
    C0000026  R0000008  21.            R0000009   -34.       
    C0000027  OBJROW    9.             R0000000   -46.       
    C0000027  R0000001   -42.          R0000002  41.         
    C0000027  R0000004  19.            R0000006  18.         
    C0000027  R0000007   -14.          R0000008   -31.       
    C0000027  R0000009   -42.       
    C0000028  OBJROW     -13.          R0000001  7.          
    C0000028  R0000002  2.             R0000003   -11.       
    C0000028  R0000004   -3.           R0000005   -31.       
    C0000028  R0000006   -26.          R0000007  41.         
    C0000029  OBJROW    33.            R0000000  18.         
    C0000029  R0000002   -1.           R0000004   -13.       
    C0000029  R0000005   -38.          R0000006   -18.       
    C0000029  R0000007   -3.           R0000009   -48.       
RHS
    RHS       R0000000   -756.         R0000001   -204.      
    RHS       R0000002   -65.          R0000003  585.        
    RHS       R0000004   -380.         R0000005   -337.      
    RHS       R0000006   -80.          R0000007  566.        
    RHS       R0000008   -396.         R0000009   -716.      
BOUNDS
 UI BOUND     C0000000  500.        
 UI BOUND     C0000001  500.        
 UI BOUND     C0000002  500.        
 UI BOUND     C0000003  500.        
 UI BOUND     C0000004  500.        
 UI BOUND     C0000005  500.        
 UI BOUND     C0000006  500.        
 UI BOUND     C0000007  500.        
 UI BOUND     C0000008  500.        
 UI BOUND     C0000009  500.        
 UI BOUND     C0000010  500.        
 UI BOUND     C0000011  500.        
 UI BOUND     C0000012  500.        
 UI BOUND     C0000013  500.        
 UI BOUND     C0000014  500.        
 UI BOUND     C0000015  500.        
 UI BOUND     C0000016  500.        
 UI BOUND     C0000017  500.        
 UI BOUND     C0000018  500.        
 UI BOUND     C0000019  500.        
 UI BOUND     C0000020  500.        
 UI BOUND     C0000021  500.        
 UI BOUND     C0000022  500.        
 UI BOUND     C0000023  500.        
 UI BOUND     C0000024  500.        
 UI BOUND     C0000025  500.        
 UI BOUND     C0000026  500.        
 UI BOUND     C0000027  500.        
 UI BOUND     C0000028  500.        
 UI BOUND     C0000029  500.        
ENDATA
