NAME          BLANK   
ROWS
 N  OBJROW
 L  R0000000
 L  R0000001
 L  R0000002
 L  R0000003
 L  R0000004
 L  R0000005
 L  R0000006
 L  R0000007
 L  R0000008
 L  R0000009
 L  R0000010
 L  R0000011
 L  R0000012
 L  R0000013
 L  R0000014
COLUMNS
    C0000000  OBJROW    33.            R0000000  31.         
    C0000000  R0000002  19.            R0000003   -27.       
    C0000000  R0000004  9.             R0000005   -11.       
    C0000000  R0000006   -16.          R0000007   -21.       
    C0000000  R0000008  29.            R0000009  16.         
    C0000000  R0000011  46.            R0000013   -3.        
    C0000000  R0000014  11.         
    C0000001  OBJROW    16.            R0000000  13.         
    C0000001  R0000001   -24.          R0000002   -14.       
    C0000001  R0000003  48.            R0000004   -24.       
    C0000001  R0000005   -24.          R0000006  23.         
    C0000001  R0000007   -47.          R0000008  35.         
    C0000001  R0000009  10.            R0000011   -15.       
    C0000001  R0000012   -13.          R0000014   -32.       
    C0000002  OBJROW     -31.          R0000000  46.         
    C0000002  R0000001   -20.          R0000003  16.         
    C0000002  R0000004  1.             R0000005   -40.       
    C0000002  R0000006   -37.          R0000008   -5.        
    C0000002  R0000009   -42.          R0000010   -7.        
    C0000002  R0000011  24.            R0000013   -24.       
    C0000002  R0000014  35.         
    C0000003  OBJROW    7.             R0000000  7.          
    C0000003  R0000003   -30.          R0000004  21.         
    C0000003  R0000005  47.            R0000006   -29.       
    C0000003  R0000007   -31.          R0000008   -50.       
    C0000003  R0000009   -43.          R0000010   -25.       
    C0000003  R0000011  35.            R0000012  45.         
    C0000003  R0000013  2.             R0000014  3.          
    C0000004  OBJROW     -30.          R0000000  1.          
    C0000004  R0000003   -19.          R0000004   -9.        
    C0000004  R0000005   -31.          R0000006  32.         
    C0000004  R0000008  50.            R0000010   -12.       
    C0000004  R0000012  31.            R0000013   -5.        
    C0000004  R0000014   -44.       
    C0000005  OBJROW    42.            R0000000   -14.       
    C0000005  R0000001   -2.           R0000002   -17.       
    C0000005  R0000003   -28.          R0000004   -17.       
    C0000005  R0000005   -30.          R0000006  25.         
    C0000005  R0000007   -17.          R0000008  16.         
    C0000005  R0000011   -49.          R0000013   -26.       
    C0000005  R0000014  14.         
    C0000006  OBJROW    13.            R0000000   -23.       
    C0000006  R0000002   -49.          R0000004  18.         
    C0000006  R0000005   -32.          R0000006   -45.       
    C0000006  R0000008  38.            R0000009  10.         
    C0000006  R0000010   -36.          R0000011   -32.       
    C0000006  R0000012   -47.          R0000013   -12.       
    C0000006  R0000014   -19.       
    C0000007  OBJROW     -49.          R0000001  42.         
    C0000007  R0000002  2.             R0000003   -14.       
    C0000007  R0000004  37.            R0000006   -12.       
    C0000007  R0000007   -12.          R0000008  39.         
    C0000007  R0000010   -40.          R0000011   -50.       
    C0000007  R0000012  7.             R0000013  9.          
    C0000007  R0000014  39.         
    C0000008  OBJROW    41.            R0000000  18.         
    C0000008  R0000002   -31.          R0000003  4.          
    C0000008  R0000004  32.            R0000005   -37.       
    C0000008  R0000006   -31.          R0000007   -27.       
    C0000008  R0000009  34.            R0000010   -9.        
    C0000008  R0000011  3.             R0000013  36.         
    C0000008  R0000014   -38.       
    C0000009  OBJROW     -42.          R0000000  18.         
    C0000009  R0000002  7.             R0000003  27.         
    C0000009  R0000004   -11.          R0000005  28.         
    C0000009  R0000006  48.            R0000007  24.         
    C0000009  R0000008  18.            R0000009   -31.       
    C0000009  R0000010  31.            R0000011   -36.       
    C0000009  R0000013   -17.          R0000014  6.          
    C0000010  OBJROW     -13.          R0000000  35.         
    C0000010  R0000001   -11.          R0000003  18.         
    C0000010  R0000004  13.            R0000005   -50.       
    C0000010  R0000006   -2.           R0000007   -20.       
    C0000010  R0000008  40.            R0000009   -11.       
    C0000010  R0000010  8.             R0000011  1.          
    C0000010  R0000013   -41.       
    C0000011  OBJROW    12.            R0000001  19.         
    C0000011  R0000003  49.            R0000004  18.         
    C0000011  R0000005  3.             R0000006   -46.       
    C0000011  R0000008   -5.           R0000009   -50.       
    C0000011  R0000011  44.            R0000012   -12.       
    C0000011  R0000013  10.         
    C0000012  OBJROW    36.            R0000000  3.          
    C0000012  R0000002   -20.          R0000003  49.         
    C0000012  R0000004  25.            R0000005   -36.       
    C0000012  R0000006   -18.          R0000007  47.         
    C0000012  R0000008   -49.          R0000009   -15.       
    C0000012  R0000010  6.             R0000011   -18.       
    C0000012  R0000013  4.             R0000014   -25.       
    C0000013  OBJROW     -1.           R0000000  15.         
    C0000013  R0000003   -30.          R0000004  47.         
    C0000013  R0000005   -5.           R0000007   -6.        
    C0000013  R0000010  41.            R0000011  9.          
    C0000013  R0000013  13.            R0000014  42.         
    C0000014  OBJROW    32.            R0000000  4.          
    C0000014  R0000002  46.            R0000003   -46.       
    C0000014  R0000004  40.            R0000005  27.         
    C0000014  R0000006   -29.          R0000007  18.         
    C0000014  R0000008   -28.          R0000010  29.         
    C0000014  R0000013   -49.          R0000014  22.         
    C0000015  OBJROW     -32.          R0000000  45.         
    C0000015  R0000002   -4.           R0000003   -36.       
    C0000015  R0000004   -30.          R0000005  50.         
    C0000015  R0000007   -15.          R0000008   -14.       
    C0000015  R0000009  19.            R0000010  15.         
    C0000015  R0000011  11.            R0000012   -16.       
    C0000015  R0000013   -40.          R0000014   -14.       
    C0000016  OBJROW    49.            R0000000   -31.       
    C0000016  R0000002  27.            R0000003   -4.        
    C0000016  R0000005  17.            R0000006  42.         
    C0000016  R0000007  42.            R0000008  6.          
    C0000016  R0000010   -34.          R0000011   -43.       
    C0000016  R0000012  41.            R0000013   -7.        
    C0000016  R0000014   -24.       
    C0000017  OBJROW    19.            R0000000   -42.       
    C0000017  R0000002   -6.           R0000003   -6.        
    C0000017  R0000004   -33.          R0000005   -26.       
    C0000017  R0000006  7.             R0000007  50.         
    C0000017  R0000008   -23.          R0000010   -10.       
    C0000017  R0000011  18.            R0000013   -20.       
    C0000018  OBJROW    12.            R0000000  44.         
    C0000018  R0000001  23.            R0000003  45.         
    C0000018  R0000004  35.            R0000005   -6.        
    C0000018  R0000006  48.            R0000007  22.         
    C0000018  R0000008  5.             R0000009   -20.       
    C0000018  R0000010  29.            R0000011   -15.       
    C0000018  R0000012   -7.           R0000013  48.         
    C0000018  R0000014  49.         
    C0000019  OBJROW    17.            R0000000   -49.       
    C0000019  R0000002   -30.          R0000003  11.         
    C0000019  R0000004   -17.          R0000005   -15.       
    C0000019  R0000006   -42.          R0000007  45.         
    C0000019  R0000008   -40.          R0000009   -23.       
    C0000019  R0000010   -3.           R0000011  19.         
    C0000019  R0000013   -43.          R0000014   -3.        
    C0000020  OBJROW     -49.          R0000003  12.         
    C0000020  R0000004   -29.          R0000005   -15.       
    C0000020  R0000006   -46.          R0000008  17.         
    C0000020  R0000009  44.            R0000010  50.         
    C0000020  R0000011   -23.          R0000013   -28.       
    C0000020  R0000014   -23.       
    C0000021  OBJROW    8.             R0000000  35.         
    C0000021  R0000003  22.            R0000004  23.         
    C0000021  R0000005  35.            R0000007  15.         
    C0000021  R0000008   -23.          R0000009   -35.       
    C0000021  R0000010  19.            R0000011  18.         
    C0000021  R0000012   -48.          R0000013   -23.       
    C0000021  R0000014  18.         
    C0000022  OBJROW    9.             R0000000  9.          
    C0000022  R0000001   -5.           R0000002  22.         
    C0000022  R0000003  2.             R0000005   -49.       
    C0000022  R0000007   -5.           R0000010  11.         
    C0000022  R0000011  14.            R0000013   -43.       
    C0000022  R0000014  13.         
    C0000023  OBJROW    6.             R0000000  14.         
    C0000023  R0000002  40.            R0000003  35.         
    C0000023  R0000004   -26.          R0000005   -38.       
    C0000023  R0000006   -16.          R0000007  5.          
    C0000023  R0000008   -43.          R0000010   -30.       
    C0000023  R0000011   -8.           R0000012  3.          
    C0000023  R0000013  37.            R0000014  1.          
    C0000024  OBJROW    26.            R0000000   -8.        
    C0000024  R0000001   -7.           R0000002   -47.       
    C0000024  R0000003   -40.          R0000004   -2.        
    C0000024  R0000005  46.            R0000006  3.          
    C0000024  R0000008  50.            R0000009   -8.        
    C0000024  R0000010  14.            R0000011  35.         
    C0000024  R0000013   -37.          R0000014  33.         
    C0000025  OBJROW     -27.          R0000000  8.          
    C0000025  R0000001  27.            R0000002   -38.       
    C0000025  R0000003  43.            R0000004   -43.       
    C0000025  R0000005  49.            R0000007   -5.        
    C0000025  R0000008  11.            R0000009   -25.       
    C0000025  R0000010  42.            R0000011   -26.       
    C0000025  R0000012   -34.          R0000013   -32.       
    C0000025  R0000014  27.         
    C0000026  OBJROW    9.             R0000000   -47.       
    C0000026  R0000001  31.            R0000002  41.         
    C0000026  R0000003  33.            R0000004  17.         
    C0000026  R0000005   -15.          R0000006   -30.       
    C0000026  R0000008   -4.           R0000009  17.         
    C0000026  R0000010   -37.          R0000011   -3.        
    C0000026  R0000013   -41.          R0000014   -9.        
    C0000027  OBJROW    30.            R0000002  46.         
    C0000027  R0000003   -37.          R0000007  32.         
    C0000027  R0000008   -23.          R0000009  20.         
    C0000027  R0000010  2.             R0000011  43.         
    C0000027  R0000013  19.            R0000014  49.         
    C0000028  OBJROW    43.            R0000000  25.         
    C0000028  R0000003  40.            R0000004  21.         
    C0000028  R0000005   -41.          R0000006   -44.       
    C0000028  R0000007   -13.          R0000008   -24.       
    C0000028  R0000009   -21.          R0000010   -47.       
    C0000028  R0000011   -3.           R0000012   -45.       
    C0000028  R0000013  20.            R0000014  9.          
    C0000029  OBJROW     -49.          R0000000  6.          
    C0000029  R0000001   -47.          R0000002  24.         
    C0000029  R0000003   -50.          R0000004  7.          
    C0000029  R0000005   -40.          R0000006  22.         
    C0000029  R0000007   -10.          R0000008   -6.        
    C0000029  R0000009   -1.           R0000010   -44.       
    C0000029  R0000011  44.            R0000013   -40.       
    C0000029  R0000014   -35.       
RHS
    RHS       R0000000  94.            R0000001  125.        
    RHS       R0000002   -557.         R0000003  532.        
    RHS       R0000004   -152.         R0000005  153.        
    RHS       R0000006   -101.         R0000007   -32.       
    RHS       R0000008  267.           R0000009   -553.      
    RHS       R0000010  197.           R0000011  158.        
    RHS       R0000012   -261.         R0000013   -308.      
    RHS       R0000014  289.        
BOUNDS
 UI BOUND     C0000000  500.        
 UI BOUND     C0000001  500.        
 UI BOUND     C0000002  500.        
 UI BOUND     C0000003  500.        
 UI BOUND     C0000004  500.        
 UI BOUND     C0000005  500.        
 UI BOUND     C0000006  500.        
 UI BOUND     C0000007  500.        
 UI BOUND     C0000008  500.        
 UI BOUND     C0000009  500.        
 UI BOUND     C0000010  500.        
 UI BOUND     C0000011  500.        
 UI BOUND     C0000012  500.        
 UI BOUND     C0000013  500.        
 UI BOUND     C0000014  500.        
 UI BOUND     C0000015  500.        
 UI BOUND     C0000016  500.        
 UI BOUND     C0000017  500.        
 UI BOUND     C0000018  500.        
 UI BOUND     C0000019  500.        
 UI BOUND     C0000020  500.        
 UI BOUND     C0000021  500.        
 UI BOUND     C0000022  500.        
 UI BOUND     C0000023  500.        
 UI BOUND     C0000024  500.        
 UI BOUND     C0000025  500.        
 UI BOUND     C0000026  500.        
 UI BOUND     C0000027  500.        
 UI BOUND     C0000028  500.        
 UI BOUND     C0000029  500.        
ENDATA
