NAME          BLANK   
ROWS
 N  OBJROW
 L  R0000000
 L  R0000001
 L  R0000002
 L  R0000003
 L  R0000004
 L  R0000005
 L  R0000006
 L  R0000007
 L  R0000008
 L  R0000009
COLUMNS
    C0000000  OBJROW    3.             R0000000  24.         
    C0000000  R0000001  8.             R0000005   -37.       
    C0000000  R0000006   -22.          R0000008  7.          
    C0000000  R0000009   -20.       
    C0000001  OBJROW     -45.          R0000000   -37.       
    C0000001  R0000001   -30.          R0000002   -38.       
    C0000001  R0000003   -15.          R0000007   -40.       
    C0000001  R0000008  38.            R0000009   -5.        
    C0000002  OBJROW    4.             R0000001   -22.       
    C0000002  R0000003  37.            R0000007  23.         
    C0000002  R0000008  48.            R0000009   -38.       
    C0000003  OBJROW    11.            R0000000   -35.       
    C0000003  R0000001   -10.          R0000002  42.         
    C0000003  R0000004   -48.          R0000005   -13.       
    C0000003  R0000007  3.             R0000008   -31.       
    C0000003  R0000009   -11.       
    C0000004  OBJROW    48.            R0000000  17.         
    C0000004  R0000002   -25.          R0000005   -4.        
    C0000004  R0000006   -7.           R0000007  21.         
    C0000004  R0000008  16.            R0000009  19.         
    C0000005  OBJROW     -48.          R0000000   -16.       
    C0000005  R0000001   -18.          R0000002   -27.       
    C0000005  R0000003   -28.          R0000005   -5.        
    C0000005  R0000008   -27.          R0000009   -2.        
    C0000006  OBJROW     -30.          R0000000  12.         
    C0000006  R0000001   -27.          R0000002   -42.       
    C0000006  R0000005  13.            R0000008   -37.       
    C0000007  OBJROW    2.             R0000000   -9.        
    C0000007  R0000001  26.            R0000003   -12.       
    C0000007  R0000005  49.            R0000006   -40.       
    C0000007  R0000008   -31.          R0000009  33.         
    C0000008  OBJROW    25.            R0000000   -45.       
    C0000008  R0000001  3.             R0000002  33.         
    C0000008  R0000003   -14.          R0000006  46.         
    C0000008  R0000007  32.            R0000008   -7.        
    C0000009  OBJROW     -44.          R0000000  8.          
    C0000009  R0000002   -17.          R0000003   -26.       
    C0000009  R0000005  41.            R0000007  21.         
    C0000009  R0000008   -37.          R0000009   -27.       
    C0000010  OBJROW    4.             R0000000  11.         
    C0000010  R0000001  23.            R0000004   -29.       
    C0000010  R0000005  4.             R0000007  48.         
    C0000010  R0000008  4.             R0000009   -46.       
    C0000011  OBJROW     -20.          R0000000   -38.       
    C0000011  R0000001  46.            R0000002  33.         
    C0000011  R0000004   -49.          R0000005   -49.       
    C0000011  R0000007   -40.          R0000009  4.          
    C0000012  OBJROW    22.            R0000001  33.         
    C0000012  R0000002  47.            R0000005   -23.       
    C0000012  R0000006   -4.           R0000007   -41.       
    C0000012  R0000008   -26.          R0000009   -20.       
    C0000013  OBJROW     -17.          R0000000  4.          
    C0000013  R0000001  17.            R0000002  25.         
    C0000013  R0000003  48.            R0000005  6.          
    C0000013  R0000007  46.            R0000008   -4.        
    C0000013  R0000009   -46.       
    C0000014  OBJROW     -46.          R0000002  24.         
    C0000014  R0000003  22.            R0000004  43.         
    C0000014  R0000005  23.            R0000006  4.          
    C0000014  R0000007  31.            R0000008   -40.       
    C0000015  OBJROW     -8.           R0000001  38.         
    C0000015  R0000003  49.            R0000004  16.         
    C0000015  R0000005   -3.           R0000007  3.          
    C0000015  R0000008   -27.          R0000009  33.         
    C0000016  OBJROW    34.            R0000001  18.         
    C0000016  R0000002  4.             R0000003  7.          
    C0000016  R0000004  38.            R0000005  21.         
    C0000016  R0000007   -22.          R0000009  24.         
    C0000017  OBJROW    44.            R0000000  11.         
    C0000017  R0000001   -5.           R0000002  24.         
    C0000017  R0000003   -34.          R0000005  46.         
    C0000017  R0000006  49.            R0000008   -46.       
    C0000017  R0000009  13.         
    C0000018  OBJROW    26.            R0000000   -37.       
    C0000018  R0000002  28.            R0000003  47.         
    C0000018  R0000005   -39.          R0000007   -29.       
    C0000018  R0000008   -19.          R0000009   -13.       
    C0000019  OBJROW     -36.          R0000000   -20.       
    C0000019  R0000001  18.            R0000002  17.         
    C0000019  R0000003   -20.          R0000005   -49.       
    C0000019  R0000007   -41.          R0000008  44.         
    C0000019  R0000009  11.         
    C0000020  OBJROW     -43.          R0000001   -33.       
    C0000020  R0000002   -23.          R0000003  47.         
    C0000020  R0000004   -32.          R0000005   -5.        
    C0000020  R0000008  20.            R0000009   -25.       
    C0000021  OBJROW     -37.          R0000000  48.         
    C0000021  R0000001  7.             R0000002  9.          
    C0000021  R0000003  14.            R0000008   -1.        
    C0000021  R0000009   -22.       
    C0000022  OBJROW    18.            R0000001  15.         
    C0000022  R0000002   -49.          R0000003  45.         
    C0000022  R0000004  14.            R0000005  29.         
    C0000022  R0000006  35.            R0000008   -22.       
    C0000022  R0000009  16.         
    C0000023  OBJROW     -37.          R0000000   -34.       
    C0000023  R0000001   -5.           R0000002   -12.       
    C0000023  R0000003  35.            R0000004  17.         
    C0000023  R0000005  10.            R0000007   -13.       
    C0000023  R0000008  24.            R0000009  18.         
    C0000024  OBJROW    10.            R0000000   -28.       
    C0000024  R0000001   -31.          R0000002  46.         
    C0000024  R0000003   -34.          R0000004   -27.       
    C0000024  R0000005  6.             R0000007   -2.        
    C0000024  R0000008   -18.          R0000009  34.         
    C0000025  OBJROW    45.            R0000003  49.         
    C0000025  R0000004   -37.          R0000005   -30.       
    C0000025  R0000006  15.            R0000007  35.         
    C0000025  R0000008   -47.       
    C0000026  OBJROW    26.            R0000000   -35.       
    C0000026  R0000001   -50.          R0000002   -42.       
    C0000026  R0000003  5.             R0000005   -50.       
    C0000026  R0000006   -13.          R0000007   -10.       
    C0000026  R0000008   -5.           R0000009  5.          
    C0000027  OBJROW    47.            R0000000  38.         
    C0000027  R0000001   -14.          R0000002   -4.        
    C0000027  R0000003   -3.           R0000004  12.         
    C0000027  R0000005  50.            R0000006  50.         
    C0000027  R0000007   -4.           R0000008   -6.        
    C0000027  R0000009  37.         
    C0000028  OBJROW     -3.           R0000001   -41.       
    C0000028  R0000002   -18.          R0000003  19.         
    C0000028  R0000004  34.            R0000005   -16.       
    C0000028  R0000006  15.            R0000007   -31.       
    C0000028  R0000008   -13.          R0000009  4.          
    C0000029  OBJROW     -8.           R0000000   -23.       
    C0000029  R0000001  47.            R0000002   -44.       
    C0000029  R0000003  10.            R0000005   -38.       
    C0000029  R0000007   -22.          R0000008   -15.       
    C0000029  R0000009   -11.       
RHS
    RHS       R0000000   -142.         R0000001  486.        
    RHS       R0000002   -335.         R0000003  699.        
    RHS       R0000004  231.           R0000005  212.        
    RHS       R0000006  174.           R0000007   -223.      
    RHS       R0000008   -547.         R0000009  239.        
BOUNDS
 UI BOUND     C0000000  500.        
 UI BOUND     C0000001  500.        
 UI BOUND     C0000002  500.        
 UI BOUND     C0000003  500.        
 UI BOUND     C0000004  500.        
 UI BOUND     C0000005  500.        
 UI BOUND     C0000006  500.        
 UI BOUND     C0000007  500.        
 UI BOUND     C0000008  500.        
 UI BOUND     C0000009  500.        
 UI BOUND     C0000010  500.        
 UI BOUND     C0000011  500.        
 UI BOUND     C0000012  500.        
 UI BOUND     C0000013  500.        
 UI BOUND     C0000014  500.        
 UI BOUND     C0000015  500.        
 UI BOUND     C0000016  500.        
 UI BOUND     C0000017  500.        
 UI BOUND     C0000018  500.        
 UI BOUND     C0000019  500.        
 UI BOUND     C0000020  500.        
 UI BOUND     C0000021  500.        
 UI BOUND     C0000022  500.        
 UI BOUND     C0000023  500.        
 UI BOUND     C0000024  500.        
 UI BOUND     C0000025  500.        
 UI BOUND     C0000026  500.        
 UI BOUND     C0000027  500.        
 UI BOUND     C0000028  500.        
 UI BOUND     C0000029  500.        
ENDATA
