NAME          BLANK   
ROWS
 N  OBJROW
 L  R0000000
 L  R0000001
 L  R0000002
 L  R0000003
 L  R0000004
 L  R0000005
 L  R0000006
 L  R0000007
 L  R0000008
 L  R0000009
 L  R0000010
 L  R0000011
 L  R0000012
 L  R0000013
 L  R0000014
COLUMNS
    C0000000  OBJROW    10.            R0000000   -3.        
    C0000000  R0000001   -25.          R0000003  16.         
    C0000000  R0000004   -6.           R0000005   -10.       
    C0000000  R0000007   -25.          R0000008   -11.       
    C0000000  R0000009   -20.          R0000011  20.         
    C0000000  R0000012   -38.          R0000014   -19.       
    C0000001  OBJROW     -29.          R0000000  40.         
    C0000001  R0000001   -38.          R0000002  45.         
    C0000001  R0000003   -5.           R0000004  45.         
    C0000001  R0000005  8.             R0000006  43.         
    C0000001  R0000007  15.            R0000008  31.         
    C0000001  R0000009  19.            R0000010   -2.        
    C0000001  R0000012  31.         
    C0000002  OBJROW    8.             R0000000   -7.        
    C0000002  R0000001  8.             R0000002  1.          
    C0000002  R0000004   -18.          R0000005  10.         
    C0000002  R0000006  33.            R0000007  31.         
    C0000002  R0000008  28.            R0000009  23.         
    C0000002  R0000010   -17.          R0000011  36.         
    C0000002  R0000012   -19.          R0000013  45.         
    C0000002  R0000014  13.         
    C0000003  OBJROW     -13.          R0000000  16.         
    C0000003  R0000001  50.            R0000003   -49.       
    C0000003  R0000004   -2.           R0000005  45.         
    C0000003  R0000007  26.            R0000008  2.          
    C0000003  R0000010   -9.           R0000011   -5.        
    C0000003  R0000012  10.            R0000014  46.         
    C0000004  OBJROW    2.             R0000000   -12.       
    C0000004  R0000001  34.            R0000003   -5.        
    C0000004  R0000006   -33.          R0000008  13.         
    C0000004  R0000009  24.            R0000010   -25.       
    C0000004  R0000011   -7.           R0000012   -29.       
    C0000004  R0000014   -18.       
    C0000005  OBJROW    47.            R0000000   -22.       
    C0000005  R0000001  4.             R0000002  27.         
    C0000005  R0000003  31.            R0000004  6.          
    C0000005  R0000006  13.            R0000007   -29.       
    C0000005  R0000008   -41.          R0000010   -41.       
    C0000005  R0000011  13.            R0000012  7.          
    C0000006  OBJROW    46.            R0000000   -2.        
    C0000006  R0000002   -5.           R0000003   -50.       
    C0000006  R0000004   -28.          R0000005  35.         
    C0000006  R0000006  25.            R0000007  31.         
    C0000006  R0000008  5.             R0000009  30.         
    C0000006  R0000010  6.             R0000011  41.         
    C0000006  R0000012   -42.          R0000013  48.         
    C0000007  OBJROW    29.            R0000000  38.         
    C0000007  R0000001   -30.          R0000002  42.         
    C0000007  R0000003   -40.          R0000007  19.         
    C0000007  R0000008  35.            R0000009   -35.       
    C0000007  R0000010   -15.          R0000011   -9.        
    C0000007  R0000014   -38.       
    C0000008  OBJROW     -31.          R0000000  8.          
    C0000008  R0000001  13.            R0000002  8.          
    C0000008  R0000003  7.             R0000004  47.         
    C0000008  R0000005   -28.          R0000006  21.         
    C0000008  R0000007   -8.           R0000008  6.          
    C0000008  R0000009  32.            R0000010   -7.        
    C0000008  R0000011   -2.           R0000012  27.         
    C0000008  R0000013  31.            R0000014  24.         
    C0000009  OBJROW    17.            R0000000  28.         
    C0000009  R0000001  36.            R0000004   -7.        
    C0000009  R0000005  15.            R0000006   -30.       
    C0000009  R0000007   -9.           R0000008   -21.       
    C0000009  R0000009  49.            R0000010  13.         
    C0000009  R0000011   -8.           R0000012   -7.        
    C0000009  R0000013  36.            R0000014  7.          
    C0000010  OBJROW    2.             R0000001   -17.       
    C0000010  R0000003   -49.          R0000004   -6.        
    C0000010  R0000007  9.             R0000008  26.         
    C0000010  R0000009   -48.          R0000010  40.         
    C0000010  R0000011   -8.           R0000012  22.         
    C0000010  R0000013   -7.           R0000014  16.         
    C0000011  OBJROW     -11.          R0000000   -20.       
    C0000011  R0000001  10.            R0000004   -29.       
    C0000011  R0000007  44.            R0000008  17.         
    C0000011  R0000009  11.            R0000010  4.          
    C0000011  R0000011   -47.          R0000012  19.         
    C0000011  R0000013   -9.        
    C0000012  OBJROW     -40.          R0000000   -47.       
    C0000012  R0000001  20.            R0000003   -24.       
    C0000012  R0000005  38.            R0000006  47.         
    C0000012  R0000007   -47.          R0000008   -18.       
    C0000012  R0000010   -16.          R0000011  22.         
    C0000012  R0000012   -38.          R0000014   -18.       
    C0000013  OBJROW    30.            R0000000  14.         
    C0000013  R0000001  46.            R0000002  27.         
    C0000013  R0000006  32.            R0000007  29.         
    C0000013  R0000008  10.            R0000009  3.          
    C0000013  R0000010   -29.          R0000011  3.          
    C0000013  R0000012   -6.           R0000013   -49.       
    C0000013  R0000014  39.         
    C0000014  OBJROW    19.            R0000000  44.         
    C0000014  R0000001   -2.           R0000002   -13.       
    C0000014  R0000003   -7.           R0000005  31.         
    C0000014  R0000006   -10.          R0000007   -1.        
    C0000014  R0000010   -49.          R0000011   -6.        
    C0000014  R0000012   -7.           R0000014   -3.        
    C0000015  OBJROW     -48.          R0000000  46.         
    C0000015  R0000001  29.            R0000002  32.         
    C0000015  R0000003  12.            R0000004  46.         
    C0000015  R0000005  48.            R0000006  9.          
    C0000015  R0000007  32.            R0000009  28.         
    C0000015  R0000010  15.            R0000011   -34.       
    C0000015  R0000012   -41.          R0000013   -18.       
    C0000015  R0000014  28.         
    C0000016  OBJROW     -35.          R0000000   -4.        
    C0000016  R0000001  11.            R0000002   -12.       
    C0000016  R0000003  47.            R0000006  13.         
    C0000016  R0000009  37.            R0000010  14.         
    C0000016  R0000012  44.            R0000013   -45.       
    C0000017  OBJROW     -30.          R0000000   -30.       
    C0000017  R0000001  2.             R0000003  43.         
    C0000017  R0000005   -14.          R0000008  32.         
    C0000017  R0000009   -48.          R0000010  24.         
    C0000017  R0000011   -13.          R0000012   -33.       
    C0000017  R0000014   -30.       
    C0000018  OBJROW     -33.          R0000000  29.         
    C0000018  R0000002   -35.          R0000003   -17.       
    C0000018  R0000005  5.             R0000007   -14.       
    C0000018  R0000008  16.            R0000009  39.         
    C0000018  R0000011  21.            R0000012  26.         
    C0000019  OBJROW     -33.          R0000000  23.         
    C0000019  R0000001  46.            R0000004  39.         
    C0000019  R0000005   -47.          R0000006   -34.       
    C0000019  R0000007   -22.          R0000008   -16.       
    C0000019  R0000009  8.             R0000010  9.          
    C0000019  R0000011   -17.          R0000014  27.         
    C0000020  OBJROW     -13.          R0000000  38.         
    C0000020  R0000001  32.            R0000003   -32.       
    C0000020  R0000004   -38.          R0000006  17.         
    C0000020  R0000008  37.            R0000009  42.         
    C0000020  R0000010   -27.          R0000011   -24.       
    C0000020  R0000012  15.            R0000013   -43.       
    C0000020  R0000014  6.          
    C0000021  OBJROW     -38.          R0000001  27.         
    C0000021  R0000002  18.            R0000003   -16.       
    C0000021  R0000007   -42.          R0000008  6.          
    C0000021  R0000009  26.            R0000010  3.          
    C0000021  R0000011  21.            R0000013  33.         
    C0000022  OBJROW     -3.           R0000000  24.         
    C0000022  R0000001  32.            R0000002  20.         
    C0000022  R0000003   -26.          R0000005  28.         
    C0000022  R0000006  32.            R0000007   -20.       
    C0000022  R0000008   -46.          R0000009   -42.       
    C0000022  R0000010   -5.           R0000011   -14.       
    C0000022  R0000012  39.            R0000014  8.          
    C0000023  OBJROW    31.            R0000000  45.         
    C0000023  R0000001  34.            R0000002   -4.        
    C0000023  R0000003   -14.          R0000006  23.         
    C0000023  R0000007   -40.          R0000008   -26.       
    C0000023  R0000009   -36.          R0000010  22.         
    C0000023  R0000011  26.            R0000012  15.         
    C0000023  R0000013   -17.          R0000014   -23.       
    C0000024  OBJROW     -42.          R0000001   -32.       
    C0000024  R0000002   -26.          R0000004   -14.       
    C0000024  R0000005   -32.          R0000006   -3.        
    C0000024  R0000007  26.            R0000009  26.         
    C0000024  R0000010   -45.          R0000011  14.         
    C0000024  R0000012   -4.        
    C0000025  OBJROW     -32.          R0000001   -1.        
    C0000025  R0000003   -14.          R0000004  8.          
    C0000025  R0000007  18.            R0000008  28.         
    C0000025  R0000009  4.             R0000010  32.         
    C0000025  R0000011  37.            R0000012   -23.       
    C0000025  R0000014  8.          
    C0000026  OBJROW     -13.          R0000000  16.         
    C0000026  R0000001   -29.          R0000002   -7.        
    C0000026  R0000003   -39.          R0000004   -22.       
    C0000026  R0000005  19.            R0000006  35.         
    C0000026  R0000008   -28.          R0000009   -11.       
    C0000026  R0000010   -44.          R0000011  42.         
    C0000026  R0000012   -41.          R0000014  8.          
    C0000027  OBJROW     -16.          R0000000  48.         
    C0000027  R0000001   -42.          R0000004   -11.       
    C0000027  R0000005  2.             R0000006   -3.        
    C0000027  R0000007  5.             R0000008   -43.       
    C0000027  R0000010   -27.          R0000011  42.         
    C0000027  R0000012  30.         
    C0000028  OBJROW     -25.          R0000000  20.         
    C0000028  R0000001   -2.           R0000002  41.         
    C0000028  R0000003   -10.          R0000004  36.         
    C0000028  R0000006  35.            R0000007   -25.       
    C0000028  R0000008  15.            R0000010  5.          
    C0000028  R0000011   -30.          R0000012  2.          
    C0000028  R0000013  4.             R0000014   -50.       
    C0000029  OBJROW     -32.          R0000000   -26.       
    C0000029  R0000001   -35.          R0000002   -28.       
    C0000029  R0000004  46.            R0000006   -38.       
    C0000029  R0000007   -29.          R0000008   -35.       
    C0000029  R0000009   -20.          R0000010   -6.        
    C0000029  R0000011   -43.          R0000012   -48.       
    C0000029  R0000014  13.         
RHS
    RHS       R0000000  634.           R0000001  129.        
    RHS       R0000002  362.           R0000003   -33.       
    RHS       R0000004  640.           R0000005  277.        
    RHS       R0000006  226.           R0000007  63.         
    RHS       R0000008   -353.         R0000009  344.        
    RHS       R0000010   -233.         R0000011   -326.      
    RHS       R0000012   -97.          R0000013  136.        
    RHS       R0000014  240.        
BOUNDS
 UI BOUND     C0000000  500.        
 UI BOUND     C0000001  500.        
 UI BOUND     C0000002  500.        
 UI BOUND     C0000003  500.        
 UI BOUND     C0000004  500.        
 UI BOUND     C0000005  500.        
 UI BOUND     C0000006  500.        
 UI BOUND     C0000007  500.        
 UI BOUND     C0000008  500.        
 UI BOUND     C0000009  500.        
 UI BOUND     C0000010  500.        
 UI BOUND     C0000011  500.        
 UI BOUND     C0000012  500.        
 UI BOUND     C0000013  500.        
 UI BOUND     C0000014  500.        
 UI BOUND     C0000015  500.        
 UI BOUND     C0000016  500.        
 UI BOUND     C0000017  500.        
 UI BOUND     C0000018  500.        
 UI BOUND     C0000019  500.        
 UI BOUND     C0000020  500.        
 UI BOUND     C0000021  500.        
 UI BOUND     C0000022  500.        
 UI BOUND     C0000023  500.        
 UI BOUND     C0000024  500.        
 UI BOUND     C0000025  500.        
 UI BOUND     C0000026  500.        
 UI BOUND     C0000027  500.        
 UI BOUND     C0000028  500.        
 UI BOUND     C0000029  500.        
ENDATA
