NAME          BLANK   
ROWS
 N  OBJROW
 L  R0000000
 L  R0000001
 L  R0000002
 L  R0000003
 L  R0000004
 L  R0000005
 L  R0000006
 L  R0000007
 L  R0000008
 L  R0000009
COLUMNS
    C0000000  OBJROW    36.            R0000000  50.         
    C0000000  R0000001   -44.          R0000002   -24.       
    C0000000  R0000003  23.            R0000004   -47.       
    C0000000  R0000005   -26.          R0000006   -22.       
    C0000000  R0000007   -4.        
    C0000001  OBJROW    38.            R0000001   -33.       
    C0000001  R0000003  20.            R0000005   -12.       
    C0000001  R0000006  38.         
    C0000002  OBJROW     -15.          R0000002   -25.       
    C0000002  R0000003  48.            R0000004   -15.       
    C0000002  R0000005  9.             R0000006  32.         
    C0000002  R0000007  49.         
    C0000003  OBJROW     -39.          R0000000   -24.       
    C0000003  R0000001   -10.          R0000002   -26.       
    C0000003  R0000003  46.            R0000006  50.         
    C0000003  R0000007  15.            R0000008   -12.       
    C0000003  R0000009  28.         
    C0000004  OBJROW     -11.          R0000005   -43.       
    C0000004  R0000006  22.            R0000009   -34.       
    C0000005  OBJROW     -43.          R0000000  18.         
    C0000005  R0000001   -11.          R0000002  10.         
    C0000005  R0000003   -9.           R0000005   -46.       
    C0000005  R0000006  11.            R0000007   -1.        
    C0000006  OBJROW    33.            R0000001  27.         
    C0000006  R0000003  19.            R0000004   -24.       
    C0000006  R0000005   -2.           R0000006   -12.       
    C0000006  R0000008  23.         
    C0000007  OBJROW    49.            R0000003   -19.       
    C0000007  R0000005   -38.          R0000006  14.         
    C0000007  R0000007  8.          
    C0000008  OBJROW    5.             R0000000  30.         
    C0000008  R0000002  20.            R0000003   -25.       
    C0000008  R0000006  50.            R0000007   -21.       
    C0000008  R0000008   -4.        
    C0000009  OBJROW     -37.          R0000000   -5.        
    C0000009  R0000001  42.            R0000003  45.         
    C0000009  R0000005  24.            R0000006  12.         
    C0000009  R0000008  11.            R0000009  40.         
    C0000010  OBJROW    30.            R0000002  14.         
    C0000010  R0000003   -34.          R0000004  48.         
    C0000010  R0000005   -14.          R0000007  48.         
    C0000011  OBJROW     -49.          R0000000   -26.       
    C0000011  R0000003   -29.          R0000004  19.         
    C0000011  R0000005   -23.          R0000006   -41.       
    C0000011  R0000007  24.         
    C0000012  OBJROW    36.            R0000000  49.         
    C0000012  R0000002  25.            R0000003   -28.       
    C0000012  R0000005  44.            R0000006   -4.        
    C0000012  R0000007   -13.          R0000008  24.         
    C0000012  R0000009   -20.       
    C0000013  OBJROW    25.            R0000000  33.         
    C0000013  R0000001  21.            R0000002  33.         
    C0000013  R0000003   -18.          R0000005  34.         
    C0000013  R0000006  28.            R0000007  22.         
    C0000013  R0000008   -14.          R0000009  14.         
    C0000014  OBJROW     -9.           R0000001  7.          
    C0000014  R0000002  12.            R0000003   -29.       
    C0000014  R0000004  26.            R0000005   -42.       
    C0000014  R0000006   -50.          R0000007   -2.        
    C0000014  R0000009  18.         
    C0000015  OBJROW     -48.          R0000001   -42.       
    C0000015  R0000002   -40.          R0000003   -38.       
    C0000015  R0000005   -15.          R0000006   -12.       
    C0000015  R0000007  3.             R0000009   -20.       
    C0000016  OBJROW     -29.          R0000002  20.         
    C0000016  R0000003   -7.           R0000005  28.         
    C0000016  R0000006   -2.           R0000008  37.         
    C0000016  R0000009   -37.       
    C0000017  OBJROW     -11.          R0000002   -12.       
    C0000017  R0000003  24.            R0000004  19.         
    C0000017  R0000005  4.             R0000006  6.          
    C0000018  OBJROW    26.            R0000003  38.         
    C0000018  R0000005   -33.          R0000006   -49.       
    C0000018  R0000007   -3.           R0000008  18.         
    C0000018  R0000009   -3.        
    C0000019  OBJROW    9.             R0000002  28.         
    C0000019  R0000003   -21.          R0000004   -25.       
    C0000019  R0000005  35.            R0000006   -45.       
    C0000019  R0000008   -16.       
    C0000020  OBJROW     -9.           R0000000  47.         
    C0000020  R0000002   -8.           R0000003   -15.       
    C0000020  R0000005  1.             R0000006  41.         
    C0000020  R0000009  8.          
    C0000021  OBJROW     -27.          R0000001   -21.       
    C0000021  R0000003   -1.           R0000005  3.          
    C0000021  R0000006  13.            R0000008  39.         
    C0000021  R0000009   -8.        
    C0000022  OBJROW    14.            R0000000   -17.       
    C0000022  R0000002  33.            R0000003   -18.       
    C0000022  R0000005   -46.          R0000006  37.         
    C0000022  R0000007   -19.          R0000009  8.          
    C0000023  OBJROW     -13.          R0000003   -38.       
    C0000023  R0000005   -24.          R0000006  28.         
    C0000023  R0000007   -11.          R0000009   -19.       
    C0000024  OBJROW    12.            R0000001   -40.       
    C0000024  R0000003   -18.          R0000005  2.          
    C0000024  R0000007   -46.       
RHS
    RHS       R0000000   -104.         R0000001   -63.       
    RHS       R0000002   -69.          R0000003  146.        
    RHS       R0000004  24.            R0000005   -500.      
    RHS       R0000006   -64.          R0000007  424.        
    RHS       R0000008  276.           R0000009   -187.      
BOUNDS
 UI BOUND     C0000000  500.        
 UI BOUND     C0000001  500.        
 UI BOUND     C0000002  500.        
 UI BOUND     C0000003  500.        
 UI BOUND     C0000004  500.        
 UI BOUND     C0000005  500.        
 UI BOUND     C0000006  500.        
 UI BOUND     C0000007  500.        
 UI BOUND     C0000008  500.        
 UI BOUND     C0000009  500.        
 UI BOUND     C0000010  500.        
 UI BOUND     C0000011  500.        
 UI BOUND     C0000012  500.        
 UI BOUND     C0000013  500.        
 UI BOUND     C0000014  500.        
 UI BOUND     C0000015  500.        
 UI BOUND     C0000016  500.        
 UI BOUND     C0000017  500.        
 UI BOUND     C0000018  500.        
 UI BOUND     C0000019  500.        
 UI BOUND     C0000020  500.        
 UI BOUND     C0000021  500.        
 UI BOUND     C0000022  500.        
 UI BOUND     C0000023  500.        
 UI BOUND     C0000024  500.        
ENDATA
