NAME          BLANK   
ROWS
 N  OBJROW
 L  R0000000
 L  R0000001
 L  R0000002
 L  R0000003
 L  R0000004
 L  R0000005
 L  R0000006
 L  R0000007
 L  R0000008
 L  R0000009
COLUMNS
    C0000000  OBJROW    49.            R0000000   -4.        
    C0000000  R0000002   -18.          R0000004  33.         
    C0000000  R0000005  13.            R0000007  12.         
    C0000000  R0000008  31.            R0000009  7.          
    C0000001  OBJROW     -7.           R0000002  34.         
    C0000001  R0000004   -38.          R0000006   -26.       
    C0000001  R0000007  24.         
    C0000002  OBJROW     -35.          R0000000  17.         
    C0000002  R0000002  13.            R0000003  20.         
    C0000002  R0000004   -9.           R0000005  1.          
    C0000002  R0000006   -20.          R0000008  6.          
    C0000003  OBJROW     -46.          R0000000   -16.       
    C0000003  R0000002   -32.          R0000003   -45.       
    C0000003  R0000004   -37.          R0000006  8.          
    C0000004  OBJROW     -32.          R0000000   -18.       
    C0000004  R0000001  6.             R0000002  35.         
    C0000004  R0000003  13.            R0000004   -31.       
    C0000004  R0000005   -16.          R0000006  1.          
    C0000004  R0000008  36.            R0000009  28.         
    C0000005  OBJROW    24.            R0000001  20.         
    C0000005  R0000002   -5.           R0000004   -19.       
    C0000005  R0000006   -14.          R0000008  16.         
    C0000006  OBJROW    30.            R0000001  47.         
    C0000006  R0000004  33.            R0000005  27.         
    C0000006  R0000006   -42.          R0000007   -20.       
    C0000007  OBJROW    44.            R0000001  3.          
    C0000007  R0000002  26.            R0000004  47.         
    C0000007  R0000007   -14.       
    C0000008  OBJROW     -29.          R0000001  5.          
    C0000008  R0000004   -12.          R0000006  24.         
    C0000008  R0000008   -50.       
    C0000009  OBJROW    6.             R0000003   -40.       
    C0000009  R0000006   -34.          R0000007   -13.       
    C0000009  R0000009  33.         
    C0000010  OBJROW     -44.          R0000000   -16.       
    C0000010  R0000001  12.            R0000002   -9.        
    C0000010  R0000003   -36.          R0000004   -29.       
    C0000010  R0000005  12.            R0000006   -9.        
    C0000010  R0000007  28.         
    C0000011  OBJROW     -20.          R0000000  18.         
    C0000011  R0000001   -42.          R0000003  29.         
    C0000011  R0000004   -3.           R0000005   -9.        
    C0000011  R0000006  32.            R0000007  13.         
    C0000011  R0000008   -47.       
    C0000012  OBJROW     -49.          R0000000  36.         
    C0000012  R0000001   -1.           R0000002  30.         
    C0000012  R0000003   -41.          R0000004   -7.        
    C0000012  R0000006  5.          
    C0000013  OBJROW     -48.          R0000002  44.         
    C0000013  R0000003   -41.          R0000004   -47.       
    C0000013  R0000006  24.            R0000007  6.          
    C0000013  R0000008   -9.        
    C0000014  OBJROW     -6.           R0000002  28.         
    C0000014  R0000003   -17.          R0000004  17.         
    C0000014  R0000005  42.         
    C0000015  OBJROW    18.            R0000000   -28.       
    C0000015  R0000002   -46.          R0000004  18.         
    C0000015  R0000009   -23.       
    C0000016  OBJROW     -37.          R0000000   -27.       
    C0000016  R0000004   -6.           R0000005  33.         
    C0000016  R0000007  4.          
    C0000017  OBJROW    1.             R0000002  39.         
    C0000017  R0000004   -15.          R0000005  49.         
    C0000017  R0000007   -27.          R0000009   -32.       
    C0000018  OBJROW    25.            R0000000   -41.       
    C0000018  R0000002  29.            R0000004  37.         
    C0000018  R0000005  49.            R0000006  36.         
    C0000018  R0000007  12.         
    C0000019  OBJROW    12.            R0000000  26.         
    C0000019  R0000001  33.            R0000002  15.         
    C0000019  R0000004  11.            R0000005   -40.       
    C0000019  R0000007   -12.          R0000008   -15.       
    C0000019  R0000009  9.          
    C0000020  OBJROW     -49.          R0000000   -42.       
    C0000020  R0000003   -47.          R0000004   -18.       
    C0000020  R0000005  48.            R0000006  46.         
    C0000020  R0000007   -18.          R0000009   -38.       
    C0000021  OBJROW    15.            R0000000  19.         
    C0000021  R0000001  44.            R0000004  39.         
    C0000021  R0000006  6.             R0000007  41.         
    C0000021  R0000008  45.         
    C0000022  OBJROW    3.             R0000001  43.         
    C0000022  R0000002  50.            R0000004   -39.       
    C0000022  R0000007  13.            R0000009   -1.        
    C0000023  OBJROW     -24.          R0000000  30.         
    C0000023  R0000001  12.            R0000005   -35.       
    C0000023  R0000007   -1.           R0000008   -42.       
    C0000023  R0000009  31.         
    C0000024  OBJROW     -23.          R0000001   -30.       
    C0000024  R0000002   -15.          R0000004   -30.       
    C0000024  R0000005   -16.       
    C0000025  OBJROW    19.            R0000003  41.         
    C0000025  R0000005   -34.          R0000006   -5.        
    C0000025  R0000007  46.            R0000009   -33.       
    C0000026  OBJROW     -1.           R0000002   -40.       
    C0000026  R0000004   -20.          R0000005   -34.       
    C0000026  R0000006   -29.          R0000007   -35.       
    C0000026  R0000008   -36.          R0000009   -27.       
    C0000027  OBJROW    30.            R0000000  34.         
    C0000027  R0000001   -14.          R0000004  21.         
    C0000027  R0000005   -5.           R0000007   -13.       
    C0000027  R0000008   -5.           R0000009   -33.       
    C0000028  OBJROW    17.            R0000001  24.         
    C0000028  R0000002   -41.          R0000004   -29.       
    C0000028  R0000005  9.             R0000007   -21.       
    C0000028  R0000008  12.            R0000009  46.         
    C0000029  OBJROW     -35.          R0000000  43.         
    C0000029  R0000001   -39.          R0000002   -41.       
    C0000029  R0000003   -29.          R0000004   -2.        
    C0000029  R0000006  40.            R0000007   -47.       
    C0000029  R0000008   -15.          R0000009   -35.       
RHS
    RHS       R0000000  451.           R0000001  185.        
    RHS       R0000002  408.           R0000003   -358.      
    RHS       R0000004  87.            R0000005   -40.       
    RHS       R0000006  437.           R0000007  127.        
    RHS       R0000008   -162.         R0000009   -172.      
BOUNDS
 UI BOUND     C0000000  500.        
 UI BOUND     C0000001  500.        
 UI BOUND     C0000002  500.        
 UI BOUND     C0000003  500.        
 UI BOUND     C0000004  500.        
 UI BOUND     C0000005  500.        
 UI BOUND     C0000006  500.        
 UI BOUND     C0000007  500.        
 UI BOUND     C0000008  500.        
 UI BOUND     C0000009  500.        
 UI BOUND     C0000010  500.        
 UI BOUND     C0000011  500.        
 UI BOUND     C0000012  500.        
 UI BOUND     C0000013  500.        
 UI BOUND     C0000014  500.        
 UI BOUND     C0000015  500.        
 UI BOUND     C0000016  500.        
 UI BOUND     C0000017  500.        
 UI BOUND     C0000018  500.        
 UI BOUND     C0000019  500.        
 UI BOUND     C0000020  500.        
 UI BOUND     C0000021  500.        
 UI BOUND     C0000022  500.        
 UI BOUND     C0000023  500.        
 UI BOUND     C0000024  500.        
 UI BOUND     C0000025  500.        
 UI BOUND     C0000026  500.        
 UI BOUND     C0000027  500.        
 UI BOUND     C0000028  500.        
 UI BOUND     C0000029  500.        
ENDATA
