NAME          BLANK   
ROWS
 N  OBJROW
 L  R0000000
 L  R0000001
 L  R0000002
 L  R0000003
 L  R0000004
 L  R0000005
 L  R0000006
 L  R0000007
 L  R0000008
 L  R0000009
 L  R0000010
 L  R0000011
 L  R0000012
 L  R0000013
 L  R0000014
COLUMNS
    C0000000  OBJROW     -7.           R0000000   -4.        
    C0000000  R0000001  22.            R0000002  23.         
    C0000000  R0000003  5.             R0000004  47.         
    C0000000  R0000005  43.            R0000006   -31.       
    C0000000  R0000007  18.            R0000008   -34.       
    C0000000  R0000010   -43.          R0000011   -12.       
    C0000000  R0000012  25.            R0000013  21.         
    C0000001  OBJROW     -10.          R0000001   -11.       
    C0000001  R0000002   -34.          R0000003  33.         
    C0000001  R0000004  4.             R0000006  4.          
    C0000001  R0000007   -47.          R0000009   -5.        
    C0000001  R0000012  15.            R0000013  2.          
    C0000001  R0000014  41.         
    C0000002  OBJROW    39.            R0000000   -2.        
    C0000002  R0000001   -15.          R0000005  19.         
    C0000002  R0000006   -23.          R0000007   -2.        
    C0000002  R0000008   -36.          R0000009   -19.       
    C0000002  R0000010  27.            R0000011   -19.       
    C0000002  R0000012  7.             R0000013  16.         
    C0000002  R0000014   -28.       
    C0000003  OBJROW     -14.          R0000000  50.         
    C0000003  R0000002   -31.          R0000003  23.         
    C0000003  R0000004  21.            R0000007  34.         
    C0000003  R0000008  23.            R0000011   -49.       
    C0000003  R0000012  40.            R0000013   -11.       
    C0000004  OBJROW    19.            R0000000   -11.       
    C0000004  R0000001   -43.          R0000002   -13.       
    C0000004  R0000003   -16.          R0000005  12.         
    C0000004  R0000006   -30.          R0000007  16.         
    C0000004  R0000009   -24.          R0000010   -38.       
    C0000004  R0000011   -8.           R0000012  40.         
    C0000004  R0000013  42.         
    C0000005  OBJROW    8.             R0000000  26.         
    C0000005  R0000002   -13.          R0000003   -9.        
    C0000005  R0000005  26.            R0000006  9.          
    C0000005  R0000007   -25.          R0000009  19.         
    C0000005  R0000010   -14.          R0000012   -6.        
    C0000005  R0000013  23.         
    C0000006  OBJROW     -7.           R0000000   -30.       
    C0000006  R0000003   -7.           R0000004   -18.       
    C0000006  R0000005   -14.          R0000007   -50.       
    C0000006  R0000008  34.            R0000009  16.         
    C0000006  R0000010   -17.          R0000011  30.         
    C0000006  R0000012  2.          
    C0000007  OBJROW    46.            R0000000   -28.       
    C0000007  R0000002  17.            R0000003  29.         
    C0000007  R0000004   -3.           R0000005   -30.       
    C0000007  R0000006  38.            R0000007   -41.       
    C0000007  R0000008  50.            R0000009  49.         
    C0000007  R0000010   -9.           R0000011   -1.        
    C0000007  R0000012  24.            R0000013   -43.       
    C0000007  R0000014   -18.       
    C0000008  OBJROW    25.            R0000000   -36.       
    C0000008  R0000002   -1.           R0000003   -12.       
    C0000008  R0000006   -30.          R0000008  15.         
    C0000008  R0000010   -22.          R0000011  24.         
    C0000008  R0000012   -13.          R0000013  48.         
    C0000008  R0000014   -25.       
    C0000009  OBJROW    45.            R0000000   -12.       
    C0000009  R0000003  7.             R0000005   -4.        
    C0000009  R0000006   -41.          R0000009   -34.       
    C0000009  R0000010  8.             R0000011  13.         
    C0000009  R0000012   -19.          R0000013  14.         
    C0000010  OBJROW     -26.          R0000000  25.         
    C0000010  R0000001   -17.          R0000002  19.         
    C0000010  R0000003   -19.          R0000004  23.         
    C0000010  R0000005  34.            R0000006   -27.       
    C0000010  R0000009   -12.          R0000010   -48.       
    C0000010  R0000011   -31.          R0000012   -26.       
    C0000010  R0000013  4.             R0000014   -24.       
    C0000011  OBJROW     -1.           R0000001   -11.       
    C0000011  R0000004   -22.          R0000005   -29.       
    C0000011  R0000006  5.             R0000008   -1.        
    C0000011  R0000010  36.            R0000011   -22.       
    C0000011  R0000012  38.            R0000013  44.         
    C0000011  R0000014   -17.       
    C0000012  OBJROW     -28.          R0000000   -6.        
    C0000012  R0000001  47.            R0000003   -29.       
    C0000012  R0000004   -30.          R0000006  4.          
    C0000012  R0000009  15.            R0000011   -20.       
    C0000012  R0000012  18.            R0000013   -20.       
    C0000012  R0000014   -31.       
    C0000013  OBJROW    37.            R0000001   -26.       
    C0000013  R0000003   -39.          R0000004  22.         
    C0000013  R0000006  7.             R0000007  16.         
    C0000013  R0000010   -48.          R0000012   -15.       
    C0000013  R0000013  11.            R0000014  18.         
    C0000014  OBJROW     -43.          R0000000   -12.       
    C0000014  R0000002   -24.          R0000003   -47.       
    C0000014  R0000005   -19.          R0000006   -45.       
    C0000014  R0000009  22.            R0000010  48.         
    C0000014  R0000011  31.            R0000012  39.         
    C0000014  R0000013  48.         
    C0000015  OBJROW    8.             R0000000   -30.       
    C0000015  R0000002   -42.          R0000003   -2.        
    C0000015  R0000005   -24.          R0000006   -50.       
    C0000015  R0000007  16.            R0000008  21.         
    C0000015  R0000010   -44.          R0000011  3.          
    C0000015  R0000012   -14.          R0000013  6.          
    C0000015  R0000014  19.         
    C0000016  OBJROW    46.            R0000000  29.         
    C0000016  R0000003  7.             R0000004   -29.       
    C0000016  R0000005   -50.          R0000006   -29.       
    C0000016  R0000007  4.             R0000008  13.         
    C0000016  R0000010   -24.          R0000011   -18.       
    C0000016  R0000013  50.         
    C0000017  OBJROW    16.            R0000000   -32.       
    C0000017  R0000001   -25.          R0000002  29.         
    C0000017  R0000003  24.            R0000004   -18.       
    C0000017  R0000007   -45.          R0000010  21.         
    C0000017  R0000011  35.            R0000012   -18.       
    C0000017  R0000014   -17.       
    C0000018  OBJROW     -44.          R0000000   -46.       
    C0000018  R0000002  19.            R0000003   -3.        
    C0000018  R0000006   -22.          R0000008   -10.       
    C0000018  R0000010  38.            R0000012  35.         
    C0000018  R0000013   -49.       
    C0000019  OBJROW    11.            R0000000  7.          
    C0000019  R0000001  22.            R0000002  42.         
    C0000019  R0000003  1.             R0000004   -1.        
    C0000019  R0000005   -45.          R0000007  44.         
    C0000019  R0000010  35.            R0000011   -46.       
    C0000019  R0000012  26.         
    C0000020  OBJROW     -34.          R0000000   -18.       
    C0000020  R0000002  21.            R0000003  12.         
    C0000020  R0000005   -18.          R0000006   -3.        
    C0000020  R0000009  17.            R0000010  5.          
    C0000020  R0000012   -16.       
    C0000021  OBJROW    13.            R0000000  12.         
    C0000021  R0000004   -44.          R0000005  20.         
    C0000021  R0000006  47.            R0000007  19.         
    C0000021  R0000010   -6.           R0000011   -26.       
    C0000021  R0000012   -26.          R0000013  8.          
    C0000021  R0000014   -39.       
    C0000022  OBJROW    18.            R0000000   -1.        
    C0000022  R0000002   -10.          R0000003   -19.       
    C0000022  R0000005  41.            R0000006  37.         
    C0000022  R0000010   -49.          R0000011  14.         
    C0000022  R0000012  19.            R0000013  39.         
    C0000023  OBJROW     -25.          R0000000  41.         
    C0000023  R0000002   -15.          R0000003   -26.       
    C0000023  R0000004   -11.          R0000005   -22.       
    C0000023  R0000006  10.            R0000007  7.          
    C0000023  R0000009   -22.          R0000010  33.         
    C0000023  R0000011  40.            R0000012   -42.       
    C0000023  R0000013  46.         
    C0000024  OBJROW     -3.           R0000000   -46.       
    C0000024  R0000003  13.            R0000004   -28.       
    C0000024  R0000005  41.            R0000006   -43.       
    C0000024  R0000007  38.            R0000009  8.          
    C0000024  R0000011   -8.           R0000012  42.         
    C0000024  R0000014   -18.       
RHS
    RHS       R0000000   -741.         R0000001   -129.      
    RHS       R0000002  211.           R0000003  69.         
    RHS       R0000004  129.           R0000005   -211.      
    RHS       R0000006   -692.         R0000007   -100.      
    RHS       R0000008  231.           R0000009  51.         
    RHS       R0000010   -363.         R0000011   -192.      
    RHS       R0000012  534.           R0000013   -36.       
    RHS       R0000014   -86.       
BOUNDS
 UI BOUND     C0000000  500.        
 UI BOUND     C0000001  500.        
 UI BOUND     C0000002  500.        
 UI BOUND     C0000003  500.        
 UI BOUND     C0000004  500.        
 UI BOUND     C0000005  500.        
 UI BOUND     C0000006  500.        
 UI BOUND     C0000007  500.        
 UI BOUND     C0000008  500.        
 UI BOUND     C0000009  500.        
 UI BOUND     C0000010  500.        
 UI BOUND     C0000011  500.        
 UI BOUND     C0000012  500.        
 UI BOUND     C0000013  500.        
 UI BOUND     C0000014  500.        
 UI BOUND     C0000015  500.        
 UI BOUND     C0000016  500.        
 UI BOUND     C0000017  500.        
 UI BOUND     C0000018  500.        
 UI BOUND     C0000019  500.        
 UI BOUND     C0000020  500.        
 UI BOUND     C0000021  500.        
 UI BOUND     C0000022  500.        
 UI BOUND     C0000023  500.        
 UI BOUND     C0000024  500.        
ENDATA
