NAME          BLANK   
ROWS
 N  OBJROW
 L  R0000000
 L  R0000001
 L  R0000002
 L  R0000003
 L  R0000004
 L  R0000005
 L  R0000006
 L  R0000007
 L  R0000008
 L  R0000009
 L  R0000010
 L  R0000011
 L  R0000012
 L  R0000013
 L  R0000014
COLUMNS
    C0000000  OBJROW    31.            R0000001   -29.       
    C0000000  R0000003  8.             R0000004  4.          
    C0000000  R0000008  15.            R0000011  31.         
    C0000000  R0000012  6.          
    C0000001  OBJROW    18.            R0000000   -4.        
    C0000001  R0000004   -12.          R0000005  41.         
    C0000001  R0000006  32.            R0000007  24.         
    C0000001  R0000008  29.            R0000009  28.         
    C0000001  R0000010  13.            R0000011   -28.       
    C0000001  R0000012   -45.          R0000013   -35.       
    C0000001  R0000014  35.         
    C0000002  OBJROW     -29.          R0000001   -35.       
    C0000002  R0000002   -6.           R0000006  29.         
    C0000002  R0000008   -46.          R0000012   -9.        
    C0000002  R0000014   -21.       
    C0000003  OBJROW    48.            R0000001  21.         
    C0000003  R0000005   -27.          R0000006   -24.       
    C0000003  R0000008  42.            R0000009   -17.       
    C0000003  R0000011  40.            R0000012  23.         
    C0000003  R0000014   -22.       
    C0000004  OBJROW     -41.          R0000000   -1.        
    C0000004  R0000001  48.            R0000002  40.         
    C0000004  R0000003  26.            R0000004   -35.       
    C0000004  R0000006   -45.          R0000007  36.         
    C0000004  R0000008  46.            R0000009  23.         
    C0000004  R0000010   -17.          R0000012   -13.       
    C0000004  R0000014  16.         
    C0000005  OBJROW    41.            R0000001   -11.       
    C0000005  R0000006  19.            R0000008  26.         
    C0000005  R0000009   -50.          R0000010   -30.       
    C0000005  R0000011  46.            R0000013  47.         
    C0000005  R0000014  18.         
    C0000006  OBJROW    12.            R0000001  18.         
    C0000006  R0000003   -37.          R0000005  37.         
    C0000006  R0000007   -6.           R0000008  32.         
    C0000006  R0000010  30.            R0000011   -47.       
    C0000006  R0000012  19.            R0000014  23.         
    C0000007  OBJROW    16.            R0000000  34.         
    C0000007  R0000001   -50.          R0000002  39.         
    C0000007  R0000003  8.             R0000004   -4.        
    C0000007  R0000006   -25.          R0000008   -4.        
    C0000007  R0000009  44.            R0000010  24.         
    C0000007  R0000011   -36.          R0000012  13.         
    C0000007  R0000014  25.         
    C0000008  OBJROW     -41.          R0000001  41.         
    C0000008  R0000005  34.            R0000006  27.         
    C0000008  R0000007  27.            R0000008   -42.       
    C0000008  R0000009   -28.          R0000011   -34.       
    C0000008  R0000012  5.             R0000013  15.         
    C0000008  R0000014   -6.        
    C0000009  OBJROW     -25.          R0000003   -48.       
    C0000009  R0000004   -37.          R0000006  46.         
    C0000009  R0000007  29.            R0000008   -36.       
    C0000009  R0000009  24.            R0000010  37.         
    C0000009  R0000011   -26.          R0000012   -5.        
    C0000009  R0000013   -13.          R0000014   -15.       
    C0000010  OBJROW    33.            R0000002   -25.       
    C0000010  R0000003  31.            R0000005   -42.       
    C0000010  R0000006  5.             R0000007  50.         
    C0000010  R0000008   -30.          R0000009  42.         
    C0000010  R0000011   -6.           R0000012  14.         
    C0000010  R0000014  24.         
    C0000011  OBJROW     -12.          R0000003   -28.       
    C0000011  R0000005  34.            R0000006  28.         
    C0000011  R0000007  10.            R0000008   -20.       
    C0000011  R0000010  46.            R0000011   -9.        
    C0000011  R0000012   -33.          R0000014   -1.        
    C0000012  OBJROW     -33.          R0000000  28.         
    C0000012  R0000001  11.            R0000002   -28.       
    C0000012  R0000004  12.            R0000005  24.         
    C0000012  R0000006   -31.          R0000007  35.         
    C0000012  R0000009  2.             R0000010   -15.       
    C0000012  R0000011  9.             R0000012   -47.       
    C0000012  R0000013   -22.          R0000014   -37.       
    C0000013  OBJROW     -41.          R0000001   -44.       
    C0000013  R0000002   -34.          R0000003  47.         
    C0000013  R0000004   -38.          R0000006   -6.        
    C0000013  R0000009   -34.          R0000010  38.         
    C0000013  R0000012  17.            R0000014   -36.       
    C0000014  OBJROW    21.            R0000000  38.         
    C0000014  R0000003  47.            R0000006   -50.       
    C0000014  R0000007   -7.           R0000008   -16.       
    C0000014  R0000009  33.            R0000010  44.         
    C0000014  R0000011   -26.          R0000012   -33.       
    C0000014  R0000014   -18.       
    C0000015  OBJROW    29.            R0000000   -7.        
    C0000015  R0000001  27.            R0000002   -42.       
    C0000015  R0000003  39.            R0000005  36.         
    C0000015  R0000006  50.            R0000007   -19.       
    C0000015  R0000009  6.             R0000011   -4.        
    C0000015  R0000012  21.            R0000013  2.          
    C0000015  R0000014  14.         
    C0000016  OBJROW     -13.          R0000000  19.         
    C0000016  R0000002   -1.           R0000003   -12.       
    C0000016  R0000007  19.            R0000008  47.         
    C0000016  R0000009   -14.          R0000012  23.         
    C0000016  R0000013   -5.           R0000014  45.         
    C0000017  OBJROW     -47.          R0000000  7.          
    C0000017  R0000003  6.             R0000006   -49.       
    C0000017  R0000008   -28.          R0000009  16.         
    C0000017  R0000010   -46.          R0000012  50.         
    C0000017  R0000013   -47.          R0000014   -13.       
    C0000018  OBJROW     -7.           R0000001  13.         
    C0000018  R0000002  30.            R0000004  46.         
    C0000018  R0000005   -36.          R0000006   -47.       
    C0000018  R0000007   -35.          R0000008  49.         
    C0000018  R0000009   -8.           R0000010  50.         
    C0000018  R0000013   -28.          R0000014  6.          
    C0000019  OBJROW    46.            R0000001  15.         
    C0000019  R0000002  49.            R0000003   -7.        
    C0000019  R0000005  38.            R0000006  50.         
    C0000019  R0000007  28.            R0000009   -23.       
    C0000019  R0000012  1.             R0000014   -1.        
    C0000020  OBJROW    41.            R0000001  45.         
    C0000020  R0000002  42.            R0000004  13.         
    C0000020  R0000006  31.            R0000007   -38.       
    C0000020  R0000008  38.            R0000009   -4.        
    C0000020  R0000010   -36.          R0000011  25.         
    C0000020  R0000012   -23.          R0000013   -22.       
    C0000020  R0000014   -16.       
    C0000021  OBJROW    39.            R0000001  40.         
    C0000021  R0000002   -32.          R0000005  30.         
    C0000021  R0000006   -41.          R0000008   -49.       
    C0000021  R0000009   -49.          R0000013   -36.       
    C0000021  R0000014   -34.       
    C0000022  OBJROW     -45.          R0000001   -26.       
    C0000022  R0000003   -2.           R0000004  10.         
    C0000022  R0000006   -14.          R0000007  42.         
    C0000022  R0000009   -49.          R0000012  36.         
    C0000022  R0000014   -8.        
    C0000023  OBJROW    32.            R0000000  43.         
    C0000023  R0000001  14.            R0000002  41.         
    C0000023  R0000003  29.            R0000004   -6.        
    C0000023  R0000005  18.            R0000006   -1.        
    C0000023  R0000007  36.            R0000008   -32.       
    C0000023  R0000010  41.            R0000012  15.         
    C0000023  R0000013  5.             R0000014   -17.       
    C0000024  OBJROW    15.            R0000001  1.          
    C0000024  R0000002   -48.          R0000003  17.         
    C0000024  R0000006  43.            R0000007  19.         
    C0000024  R0000009  25.            R0000011   -37.       
    C0000024  R0000012  40.            R0000014   -48.       
    C0000025  OBJROW     -11.          R0000000   -15.       
    C0000025  R0000001  19.            R0000002  25.         
    C0000025  R0000003  20.            R0000004  28.         
    C0000025  R0000005  4.             R0000006  3.          
    C0000025  R0000008   -5.           R0000014   -42.       
    C0000026  OBJROW     -31.          R0000000  43.         
    C0000026  R0000001  32.            R0000003   -39.       
    C0000026  R0000004  25.            R0000005   -8.        
    C0000026  R0000006   -5.           R0000008  36.         
    C0000026  R0000009   -7.           R0000014  21.         
    C0000027  OBJROW    43.            R0000000  35.         
    C0000027  R0000001  3.             R0000003  1.          
    C0000027  R0000006   -22.          R0000007  48.         
    C0000027  R0000009  6.             R0000010   -50.       
    C0000027  R0000012  12.            R0000013  24.         
    C0000028  OBJROW     -21.          R0000000   -41.       
    C0000028  R0000001  46.            R0000002  39.         
    C0000028  R0000005   -15.          R0000006  40.         
    C0000028  R0000008   -3.           R0000009  33.         
    C0000028  R0000010   -38.          R0000011  19.         
    C0000028  R0000012  13.            R0000013   -26.       
    C0000028  R0000014   -35.       
    C0000029  OBJROW    6.             R0000001  39.         
    C0000029  R0000002   -30.          R0000003   -30.       
    C0000029  R0000004   -8.           R0000005   -37.       
    C0000029  R0000006  2.             R0000007  25.         
    C0000029  R0000008  40.            R0000009   -25.       
    C0000029  R0000010  23.            R0000011   -36.       
    C0000029  R0000012  2.             R0000014  49.         
RHS
    RHS       R0000000  166.           R0000001  44.         
    RHS       R0000002   -203.         R0000003  277.        
    RHS       R0000004   -177.         R0000005  371.        
    RHS       R0000006  343.           R0000007  634.        
    RHS       R0000008   -40.          R0000009   -155.      
    RHS       R0000010  294.           R0000011   -49.       
    RHS       R0000012  280.           R0000013   -273.      
    RHS       R0000014  182.        
BOUNDS
 UI BOUND     C0000000  500.        
 UI BOUND     C0000001  500.        
 UI BOUND     C0000002  500.        
 UI BOUND     C0000003  500.        
 UI BOUND     C0000004  500.        
 UI BOUND     C0000005  500.        
 UI BOUND     C0000006  500.        
 UI BOUND     C0000007  500.        
 UI BOUND     C0000008  500.        
 UI BOUND     C0000009  500.        
 UI BOUND     C0000010  500.        
 UI BOUND     C0000011  500.        
 UI BOUND     C0000012  500.        
 UI BOUND     C0000013  500.        
 UI BOUND     C0000014  500.        
 UI BOUND     C0000015  500.        
 UI BOUND     C0000016  500.        
 UI BOUND     C0000017  500.        
 UI BOUND     C0000018  500.        
 UI BOUND     C0000019  500.        
 UI BOUND     C0000020  500.        
 UI BOUND     C0000021  500.        
 UI BOUND     C0000022  500.        
 UI BOUND     C0000023  500.        
 UI BOUND     C0000024  500.        
 UI BOUND     C0000025  500.        
 UI BOUND     C0000026  500.        
 UI BOUND     C0000027  500.        
 UI BOUND     C0000028  500.        
 UI BOUND     C0000029  500.        
ENDATA
