NAME          BLANK   
ROWS
 N  OBJROW
 L  R0000000
 L  R0000001
 L  R0000002
 L  R0000003
 L  R0000004
 L  R0000005
 L  R0000006
 L  R0000007
 L  R0000008
 L  R0000009
 L  R0000010
 L  R0000011
 L  R0000012
 L  R0000013
 L  R0000014
COLUMNS
    C0000000  OBJROW    20.            R0000000   -38.       
    C0000000  R0000001   -17.          R0000002   -19.       
    C0000000  R0000003  26.            R0000004  44.         
    C0000000  R0000006   -7.           R0000007   -43.       
    C0000000  R0000008   -41.          R0000012   -15.       
    C0000000  R0000013  43.         
    C0000001  OBJROW     -2.           R0000001   -22.       
    C0000001  R0000003   -28.          R0000005  29.         
    C0000001  R0000006  26.            R0000007  1.          
    C0000001  R0000008  49.            R0000009   -25.       
    C0000001  R0000011  17.            R0000012   -41.       
    C0000001  R0000013  6.             R0000014  50.         
    C0000002  OBJROW     -32.          R0000001   -11.       
    C0000002  R0000003   -29.          R0000004   -10.       
    C0000002  R0000005  12.            R0000006  19.         
    C0000002  R0000007   -2.           R0000008   -19.       
    C0000002  R0000009   -10.          R0000011   -10.       
    C0000002  R0000012   -35.       
    C0000003  OBJROW    13.            R0000000  3.          
    C0000003  R0000002  43.            R0000003   -48.       
    C0000003  R0000004   -49.          R0000005  11.         
    C0000003  R0000006  36.            R0000007  14.         
    C0000003  R0000008  24.            R0000009   -45.       
    C0000003  R0000010  29.            R0000011  17.         
    C0000003  R0000012   -34.          R0000013   -39.       
    C0000004  OBJROW     -6.           R0000001  17.         
    C0000004  R0000002  4.             R0000003  46.         
    C0000004  R0000004   -5.           R0000006   -18.       
    C0000004  R0000007  16.            R0000008   -20.       
    C0000004  R0000009  39.            R0000011   -20.       
    C0000004  R0000012   -2.           R0000013   -33.       
    C0000004  R0000014   -24.       
    C0000005  OBJROW    35.            R0000001   -5.        
    C0000005  R0000002  11.            R0000003   -40.       
    C0000005  R0000004   -34.          R0000006  23.         
    C0000005  R0000009  35.            R0000011  41.         
    C0000005  R0000012   -12.       
    C0000006  OBJROW    40.            R0000001   -2.        
    C0000006  R0000002  7.             R0000003   -26.       
    C0000006  R0000005  10.            R0000007  35.         
    C0000006  R0000008   -41.          R0000009   -8.        
    C0000006  R0000010   -29.          R0000011   -27.       
    C0000006  R0000012   -29.          R0000013  29.         
    C0000007  OBJROW     -5.           R0000000   -10.       
    C0000007  R0000001  16.            R0000002   -35.       
    C0000007  R0000003   -20.          R0000004  1.          
    C0000007  R0000006   -4.           R0000008  41.         
    C0000007  R0000009   -10.          R0000011  14.         
    C0000007  R0000012  44.            R0000013  18.         
    C0000007  R0000014  14.         
    C0000008  OBJROW    45.            R0000001  3.          
    C0000008  R0000002   -22.          R0000003  26.         
    C0000008  R0000005  47.            R0000006   -25.       
    C0000008  R0000008   -22.          R0000009  14.         
    C0000008  R0000012  21.         
    C0000009  OBJROW    49.            R0000001  4.          
    C0000009  R0000003   -42.          R0000004  29.         
    C0000009  R0000005   -30.          R0000006  2.          
    C0000009  R0000007  38.            R0000008  44.         
    C0000009  R0000009   -48.          R0000010  12.         
    C0000009  R0000012   -48.          R0000013   -4.        
    C0000009  R0000014   -39.       
    C0000010  OBJROW    44.            R0000000  42.         
    C0000010  R0000001   -46.          R0000003   -42.       
    C0000010  R0000004  16.            R0000006  21.         
    C0000010  R0000007  7.             R0000009   -44.       
    C0000010  R0000010   -6.           R0000012  29.         
    C0000010  R0000013   -43.       
    C0000011  OBJROW    12.            R0000000   -49.       
    C0000011  R0000001  25.            R0000002  18.         
    C0000011  R0000003  30.            R0000004  17.         
    C0000011  R0000006   -43.          R0000007   -7.        
    C0000011  R0000008   -26.          R0000009   -43.       
    C0000011  R0000011   -27.          R0000012   -40.       
    C0000011  R0000013   -38.          R0000014  1.          
    C0000012  OBJROW     -20.          R0000001   -23.       
    C0000012  R0000002  47.            R0000003  4.          
    C0000012  R0000006  29.            R0000007  31.         
    C0000012  R0000008   -45.          R0000009  43.         
    C0000012  R0000012   -50.          R0000013   -32.       
    C0000013  OBJROW    11.            R0000000   -29.       
    C0000013  R0000001  13.            R0000003  18.         
    C0000013  R0000004  32.            R0000006  9.          
    C0000013  R0000008   -23.          R0000009   -13.       
    C0000013  R0000011   -47.          R0000012  47.         
    C0000013  R0000013  5.             R0000014   -38.       
    C0000014  OBJROW     -13.          R0000000   -22.       
    C0000014  R0000001  49.            R0000002   -33.       
    C0000014  R0000004   -22.          R0000006   -18.       
    C0000014  R0000008   -33.          R0000009   -22.       
    C0000014  R0000011  39.            R0000012  11.         
    C0000014  R0000014   -36.       
    C0000015  OBJROW    26.            R0000000  31.         
    C0000015  R0000001  48.            R0000002   -32.       
    C0000015  R0000003  34.            R0000004   -33.       
    C0000015  R0000006   -5.           R0000007   -49.       
    C0000015  R0000008  19.            R0000009   -38.       
    C0000015  R0000010  29.            R0000011   -16.       
    C0000015  R0000012   -47.       
    C0000016  OBJROW     -25.          R0000000  10.         
    C0000016  R0000001  46.            R0000003  1.          
    C0000016  R0000005   -6.           R0000006  4.          
    C0000016  R0000008   -31.          R0000009  4.          
    C0000016  R0000012   -6.           R0000013   -27.       
    C0000016  R0000014  31.         
    C0000017  OBJROW     -40.          R0000000  5.          
    C0000017  R0000001   -31.          R0000003  5.          
    C0000017  R0000004   -6.           R0000005   -43.       
    C0000017  R0000006  47.            R0000007  25.         
    C0000017  R0000008  24.            R0000009  32.         
    C0000017  R0000010  10.            R0000011   -44.       
    C0000017  R0000012  29.            R0000013   -7.        
    C0000018  OBJROW    8.             R0000001  17.         
    C0000018  R0000003   -25.          R0000006   -8.        
    C0000018  R0000008  12.            R0000011   -19.       
    C0000018  R0000012   -38.          R0000013   -9.        
    C0000019  OBJROW     -17.          R0000000  25.         
    C0000019  R0000001   -17.          R0000002   -42.       
    C0000019  R0000003   -25.          R0000004   -49.       
    C0000019  R0000005  23.            R0000006  24.         
    C0000019  R0000007   -3.           R0000008  1.          
    C0000019  R0000009   -7.           R0000011  19.         
    C0000019  R0000012   -29.       
    C0000020  OBJROW    9.             R0000000  41.         
    C0000020  R0000001  47.            R0000002   -6.        
    C0000020  R0000003  25.            R0000004   -19.       
    C0000020  R0000006   -8.           R0000007  29.         
    C0000020  R0000008  49.            R0000009   -11.       
    C0000020  R0000010   -9.           R0000012   -21.       
    C0000020  R0000013  34.            R0000014   -43.       
    C0000021  OBJROW     -5.           R0000001   -21.       
    C0000021  R0000003  47.            R0000004   -26.       
    C0000021  R0000006   -32.          R0000008   -45.       
    C0000021  R0000009   -44.          R0000012   -49.       
    C0000021  R0000013   -38.          R0000014   -6.        
    C0000022  OBJROW    4.             R0000001  8.          
    C0000022  R0000002  38.            R0000003   -4.        
    C0000022  R0000004   -43.          R0000006  45.         
    C0000022  R0000007   -48.          R0000008   -49.       
    C0000022  R0000009  6.             R0000010   -7.        
    C0000022  R0000012  45.            R0000013   -36.       
    C0000022  R0000014  28.         
    C0000023  OBJROW    44.            R0000001   -11.       
    C0000023  R0000002   -16.          R0000003  45.         
    C0000023  R0000004  25.            R0000005   -28.       
    C0000023  R0000006  15.            R0000008  15.         
    C0000023  R0000009   -38.          R0000012  50.         
    C0000023  R0000013  30.            R0000014   -37.       
    C0000024  OBJROW    35.            R0000001   -37.       
    C0000024  R0000002  47.            R0000003  42.         
    C0000024  R0000004  35.            R0000005  47.         
    C0000024  R0000006  46.            R0000007  45.         
    C0000024  R0000008  38.            R0000009   -10.       
    C0000024  R0000011  20.            R0000012  48.         
    C0000024  R0000014  21.         
    C0000025  OBJROW     -37.          R0000000  44.         
    C0000025  R0000001   -11.          R0000002   -19.       
    C0000025  R0000003   -33.          R0000004   -20.       
    C0000025  R0000006   -33.          R0000007  13.         
    C0000025  R0000008   -22.          R0000009  46.         
    C0000025  R0000012  50.            R0000013  17.         
    C0000026  OBJROW    6.             R0000000   -8.        
    C0000026  R0000001  18.            R0000004  50.         
    C0000026  R0000005   -18.          R0000006  18.         
    C0000026  R0000007   -17.          R0000008  3.          
    C0000026  R0000009   -6.           R0000010  36.         
    C0000026  R0000011  13.            R0000012  31.         
    C0000026  R0000014  43.         
    C0000027  OBJROW    2.             R0000001   -16.       
    C0000027  R0000003   -7.           R0000005   -22.       
    C0000027  R0000006  1.             R0000007   -29.       
    C0000027  R0000008   -33.          R0000009   -45.       
    C0000027  R0000012   -44.          R0000013   -8.        
    C0000028  OBJROW     -5.           R0000000  23.         
    C0000028  R0000001  1.             R0000002  49.         
    C0000028  R0000003   -34.          R0000004  21.         
    C0000028  R0000006  17.            R0000007  39.         
    C0000028  R0000008   -39.          R0000009  15.         
    C0000028  R0000013  50.            R0000014   -48.       
    C0000029  OBJROW     -36.          R0000001  17.         
    C0000029  R0000002   -49.          R0000003  49.         
    C0000029  R0000005  37.            R0000006   -4.        
    C0000029  R0000007  11.            R0000008   -15.       
    C0000029  R0000009  42.            R0000010   -29.       
    C0000029  R0000011   -7.           R0000012   -5.        
    C0000029  R0000013   -32.          R0000014   -46.       
RHS
    RHS       R0000000   -443.         R0000001   -35.       
    RHS       R0000002   -133.         R0000003  940.        
    RHS       R0000004  115.           R0000005  244.        
    RHS       R0000006   -97.          R0000007   -354.      
    RHS       R0000008   -661.         R0000009   -565.      
    RHS       R0000010   -1.           R0000011   -268.      
    RHS       R0000012   -110.         R0000013   -240.      
    RHS       R0000014   -120.      
BOUNDS
 UI BOUND     C0000000  500.        
 UI BOUND     C0000001  500.        
 UI BOUND     C0000002  500.        
 UI BOUND     C0000003  500.        
 UI BOUND     C0000004  500.        
 UI BOUND     C0000005  500.        
 UI BOUND     C0000006  500.        
 UI BOUND     C0000007  500.        
 UI BOUND     C0000008  500.        
 UI BOUND     C0000009  500.        
 UI BOUND     C0000010  500.        
 UI BOUND     C0000011  500.        
 UI BOUND     C0000012  500.        
 UI BOUND     C0000013  500.        
 UI BOUND     C0000014  500.        
 UI BOUND     C0000015  500.        
 UI BOUND     C0000016  500.        
 UI BOUND     C0000017  500.        
 UI BOUND     C0000018  500.        
 UI BOUND     C0000019  500.        
 UI BOUND     C0000020  500.        
 UI BOUND     C0000021  500.        
 UI BOUND     C0000022  500.        
 UI BOUND     C0000023  500.        
 UI BOUND     C0000024  500.        
 UI BOUND     C0000025  500.        
 UI BOUND     C0000026  500.        
 UI BOUND     C0000027  500.        
 UI BOUND     C0000028  500.        
 UI BOUND     C0000029  500.        
ENDATA
