NAME          BLANK   
ROWS
 N  OBJROW
 L  R0000000
 L  R0000001
 L  R0000002
 L  R0000003
 L  R0000004
 L  R0000005
 L  R0000006
 L  R0000007
 L  R0000008
 L  R0000009
COLUMNS
    C0000000  OBJROW    31.            R0000000  12.         
    C0000000  R0000001  19.            R0000003   -12.       
    C0000000  R0000005   -9.           R0000006  9.          
    C0000000  R0000007  38.            R0000008   -41.       
    C0000000  R0000009   -5.        
    C0000001  OBJROW    16.            R0000000  15.         
    C0000001  R0000001   -19.          R0000002   -35.       
    C0000001  R0000003  2.             R0000005  16.         
    C0000001  R0000006  35.            R0000007   -17.       
    C0000001  R0000008  32.         
    C0000002  OBJROW     -17.          R0000000   -21.       
    C0000002  R0000001   -27.          R0000003   -25.       
    C0000002  R0000005   -30.          R0000006  2.          
    C0000002  R0000008   -39.       
    C0000003  OBJROW    31.            R0000000  5.          
    C0000003  R0000002   -5.           R0000003   -9.        
    C0000003  R0000004  4.             R0000005  25.         
    C0000003  R0000006   -18.          R0000007   -20.       
    C0000003  R0000008   -25.       
    C0000004  OBJROW     -43.          R0000000  45.         
    C0000004  R0000001   -7.           R0000002  26.         
    C0000004  R0000003  30.            R0000006  44.         
    C0000004  R0000007   -40.          R0000008   -3.        
    C0000004  R0000009   -18.       
    C0000005  OBJROW    30.            R0000000   -8.        
    C0000005  R0000003   -19.          R0000006   -17.       
    C0000005  R0000007  44.            R0000008  46.         
    C0000005  R0000009  38.         
    C0000006  OBJROW    10.            R0000000  40.         
    C0000006  R0000002  49.            R0000004  35.         
    C0000006  R0000005  13.            R0000006  43.         
    C0000006  R0000007   -14.       
    C0000007  OBJROW     -27.          R0000000  15.         
    C0000007  R0000002   -21.          R0000003  20.         
    C0000007  R0000005  45.            R0000006  21.         
    C0000007  R0000007   -44.          R0000008  26.         
    C0000008  OBJROW    22.            R0000000  31.         
    C0000008  R0000004  12.            R0000005   -4.        
    C0000008  R0000006  39.            R0000008   -42.       
    C0000009  OBJROW     -19.          R0000000  28.         
    C0000009  R0000001   -42.          R0000002   -39.       
    C0000009  R0000003  13.            R0000005  36.         
    C0000009  R0000006  44.            R0000007   -36.       
    C0000009  R0000008   -11.       
    C0000010  OBJROW    7.             R0000001   -26.       
    C0000010  R0000002  26.            R0000003  13.         
    C0000010  R0000004   -14.          R0000005   -41.       
    C0000010  R0000008  5.             R0000009   -46.       
    C0000011  OBJROW    8.             R0000000  2.          
    C0000011  R0000001  13.            R0000002   -7.        
    C0000011  R0000004   -35.          R0000005   -8.        
    C0000011  R0000006   -30.          R0000007   -7.        
    C0000011  R0000009   -50.       
    C0000012  OBJROW    44.            R0000001  44.         
    C0000012  R0000002   -30.          R0000003  10.         
    C0000012  R0000005  16.            R0000008   -32.       
    C0000013  OBJROW    38.            R0000000  2.          
    C0000013  R0000003   -22.          R0000004  48.         
    C0000013  R0000005   -8.           R0000006   -45.       
    C0000013  R0000009  38.         
    C0000014  OBJROW    6.             R0000000   -47.       
    C0000014  R0000001  41.            R0000003  41.         
    C0000014  R0000005  25.            R0000006  14.         
    C0000014  R0000008  29.            R0000009   -15.       
    C0000015  OBJROW    32.            R0000000   -29.       
    C0000015  R0000001   -14.          R0000002   -47.       
    C0000015  R0000003  29.            R0000005   -37.       
    C0000015  R0000006   -41.          R0000007   -13.       
    C0000015  R0000008  38.         
    C0000016  OBJROW    13.            R0000000  36.         
    C0000016  R0000002   -33.          R0000003   -47.       
    C0000016  R0000005  13.            R0000006   -42.       
    C0000016  R0000007  42.            R0000008   -40.       
    C0000016  R0000009   -5.        
    C0000017  OBJROW    8.             R0000000   -43.       
    C0000017  R0000001   -48.          R0000003   -19.       
    C0000017  R0000004   -22.          R0000005   -10.       
    C0000017  R0000006  20.            R0000007   -14.       
    C0000018  OBJROW    38.            R0000001   -19.       
    C0000018  R0000004  14.            R0000005  48.         
    C0000018  R0000006   -2.           R0000007   -14.       
    C0000018  R0000008   -37.       
    C0000019  OBJROW     -18.          R0000001  24.         
    C0000019  R0000002  29.            R0000003  43.         
    C0000019  R0000004  5.             R0000005   -34.       
    C0000019  R0000006   -39.          R0000008   -25.       
    C0000019  R0000009   -46.       
    C0000020  OBJROW    40.            R0000000   -34.       
    C0000020  R0000002  1.             R0000003   -31.       
    C0000020  R0000004   -49.          R0000006  13.         
    C0000020  R0000007   -32.          R0000008   -43.       
    C0000020  R0000009  43.         
    C0000021  OBJROW    22.            R0000000  5.          
    C0000021  R0000001  21.            R0000002   -38.       
    C0000021  R0000004  4.             R0000005   -45.       
    C0000021  R0000006   -33.          R0000008  32.         
    C0000022  OBJROW    29.            R0000000  34.         
    C0000022  R0000002   -12.          R0000003  34.         
    C0000022  R0000005  48.            R0000006  10.         
    C0000022  R0000007   -11.          R0000008   -43.       
    C0000022  R0000009   -2.        
    C0000023  OBJROW    36.            R0000000   -32.       
    C0000023  R0000002  2.             R0000005   -39.       
    C0000023  R0000006   -42.          R0000007  7.          
    C0000023  R0000008  29.         
    C0000024  OBJROW    40.            R0000002  41.         
    C0000024  R0000005   -27.          R0000006  6.          
    C0000024  R0000007   -40.          R0000008   -40.       
    C0000024  R0000009  16.         
    C0000025  OBJROW     -34.          R0000000  21.         
    C0000025  R0000001  39.            R0000002   -7.        
    C0000025  R0000004   -50.          R0000005  34.         
    C0000025  R0000006  23.            R0000007   -48.       
    C0000025  R0000008   -39.       
    C0000026  OBJROW     -40.          R0000000   -1.        
    C0000026  R0000002  46.            R0000003   -45.       
    C0000026  R0000004   -15.          R0000005   -11.       
    C0000026  R0000007   -32.          R0000008  18.         
    C0000026  R0000009   -10.       
    C0000027  OBJROW     -34.          R0000000  44.         
    C0000027  R0000002  15.            R0000004   -45.       
    C0000027  R0000005   -1.           R0000006   -39.       
    C0000027  R0000007  5.             R0000008   -5.        
    C0000027  R0000009  34.         
    C0000028  OBJROW    46.            R0000001  13.         
    C0000028  R0000003  5.             R0000004   -4.        
    C0000028  R0000005  33.            R0000006  37.         
    C0000028  R0000008  11.            R0000009   -31.       
    C0000029  OBJROW    44.            R0000000   -25.       
    C0000029  R0000002   -34.          R0000004   -7.        
    C0000029  R0000005  47.            R0000006   -8.        
    C0000029  R0000008   -8.           R0000009  8.          
RHS
    RHS       R0000000  254.           R0000001   -458.      
    RHS       R0000002   -102.         R0000003  90.         
    RHS       R0000004   -247.         R0000005   -256.      
    RHS       R0000006   -109.         R0000007   -350.      
    RHS       R0000008   -224.         R0000009   -226.      
BOUNDS
 UI BOUND     C0000000  500.        
 UI BOUND     C0000001  500.        
 UI BOUND     C0000002  500.        
 UI BOUND     C0000003  500.        
 UI BOUND     C0000004  500.        
 UI BOUND     C0000005  500.        
 UI BOUND     C0000006  500.        
 UI BOUND     C0000007  500.        
 UI BOUND     C0000008  500.        
 UI BOUND     C0000009  500.        
 UI BOUND     C0000010  500.        
 UI BOUND     C0000011  500.        
 UI BOUND     C0000012  500.        
 UI BOUND     C0000013  500.        
 UI BOUND     C0000014  500.        
 UI BOUND     C0000015  500.        
 UI BOUND     C0000016  500.        
 UI BOUND     C0000017  500.        
 UI BOUND     C0000018  500.        
 UI BOUND     C0000019  500.        
 UI BOUND     C0000020  500.        
 UI BOUND     C0000021  500.        
 UI BOUND     C0000022  500.        
 UI BOUND     C0000023  500.        
 UI BOUND     C0000024  500.        
 UI BOUND     C0000025  500.        
 UI BOUND     C0000026  500.        
 UI BOUND     C0000027  500.        
 UI BOUND     C0000028  500.        
 UI BOUND     C0000029  500.        
ENDATA
