NAME          BLANK   
ROWS
 N  OBJROW
 L  R0000000
 L  R0000001
 L  R0000002
 L  R0000003
 L  R0000004
 L  R0000005
 L  R0000006
 L  R0000007
 L  R0000008
 L  R0000009
COLUMNS
    C0000000  OBJROW     -8.           R0000000   -36.       
    C0000000  R0000001   -37.          R0000003  6.          
    C0000000  R0000005   -9.           R0000006   -48.       
    C0000000  R0000007   -21.          R0000008   -22.       
    C0000001  OBJROW    19.            R0000000  9.          
    C0000001  R0000001  37.            R0000002  50.         
    C0000001  R0000004   -36.          R0000005   -44.       
    C0000001  R0000006   -37.          R0000007   -49.       
    C0000001  R0000008   -16.       
    C0000002  OBJROW    29.            R0000002   -50.       
    C0000002  R0000003  37.            R0000004   -39.       
    C0000002  R0000006  24.            R0000007  11.         
    C0000002  R0000008  28.         
    C0000003  OBJROW    36.            R0000000   -40.       
    C0000003  R0000001   -22.          R0000003  21.         
    C0000003  R0000004   -14.          R0000005  21.         
    C0000003  R0000006  49.            R0000007  16.         
    C0000003  R0000008   -7.           R0000009   -31.       
    C0000004  OBJROW    32.            R0000000   -26.       
    C0000004  R0000001  5.             R0000003   -12.       
    C0000004  R0000004  26.            R0000007   -50.       
    C0000004  R0000008   -17.          R0000009  14.         
    C0000005  OBJROW     -43.          R0000000  23.         
    C0000005  R0000001   -12.          R0000002   -32.       
    C0000005  R0000004   -33.          R0000006  48.         
    C0000005  R0000007  2.             R0000008   -16.       
    C0000005  R0000009   -45.       
    C0000006  OBJROW     -23.          R0000000  33.         
    C0000006  R0000001  16.            R0000004  46.         
    C0000006  R0000006  1.             R0000007  19.         
    C0000006  R0000008  5.             R0000009   -40.       
    C0000007  OBJROW    38.            R0000000   -39.       
    C0000007  R0000003   -44.          R0000004   -5.        
    C0000007  R0000006   -11.          R0000007   -37.       
    C0000007  R0000008   -31.          R0000009  22.         
    C0000008  OBJROW    28.            R0000001  24.         
    C0000008  R0000002  18.            R0000007  18.         
    C0000008  R0000008  48.            R0000009   -38.       
    C0000009  OBJROW    16.            R0000000   -38.       
    C0000009  R0000001   -22.          R0000002  24.         
    C0000009  R0000003  42.            R0000004   -19.       
    C0000009  R0000005  46.            R0000007   -47.       
    C0000009  R0000008   -22.          R0000009  24.         
    C0000010  OBJROW     -47.          R0000001   -1.        
    C0000010  R0000002   -5.           R0000003  31.         
    C0000010  R0000004   -8.           R0000005  50.         
    C0000010  R0000007   -21.          R0000008   -28.       
    C0000011  OBJROW    13.            R0000000  18.         
    C0000011  R0000004  6.             R0000005  26.         
    C0000011  R0000006  47.            R0000007  19.         
    C0000011  R0000008  9.             R0000009  37.         
    C0000012  OBJROW    36.            R0000000  20.         
    C0000012  R0000001  29.            R0000002   -39.       
    C0000012  R0000003  3.             R0000005  9.          
    C0000012  R0000007  39.            R0000008  23.         
    C0000013  OBJROW     -6.           R0000000   -43.       
    C0000013  R0000001   -47.          R0000002   -24.       
    C0000013  R0000004  16.            R0000005   -30.       
    C0000013  R0000006  49.            R0000007   -5.        
    C0000013  R0000008  7.             R0000009  1.          
    C0000014  OBJROW     -46.          R0000000   -46.       
    C0000014  R0000001  23.            R0000002   -35.       
    C0000014  R0000003   -35.          R0000004  31.         
    C0000014  R0000005   -21.          R0000006   -6.        
    C0000014  R0000007  22.            R0000008  30.         
    C0000015  OBJROW    23.            R0000000  34.         
    C0000015  R0000002  26.            R0000003  11.         
    C0000015  R0000004  35.            R0000006   -24.       
    C0000015  R0000007   -4.           R0000008  13.         
    C0000015  R0000009   -47.       
    C0000016  OBJROW    17.            R0000000   -1.        
    C0000016  R0000001   -36.          R0000002  11.         
    C0000016  R0000003  18.            R0000004  1.          
    C0000016  R0000005  28.            R0000007   -18.       
    C0000016  R0000008   -49.          R0000009   -17.       
    C0000017  OBJROW     -43.          R0000003  6.          
    C0000017  R0000007  38.            R0000008  40.         
    C0000017  R0000009   -23.       
    C0000018  OBJROW    43.            R0000000  17.         
    C0000018  R0000001  12.            R0000002  14.         
    C0000018  R0000003  37.            R0000004   -4.        
    C0000018  R0000005  26.            R0000006   -49.       
    C0000018  R0000007  14.            R0000008  16.         
    C0000018  R0000009   -17.       
    C0000019  OBJROW     -48.          R0000000   -28.       
    C0000019  R0000001   -46.          R0000002  4.          
    C0000019  R0000003   -38.          R0000005  18.         
    C0000019  R0000007   -50.          R0000008  49.         
    C0000019  R0000009   -6.        
    C0000020  OBJROW    9.             R0000000   -22.       
    C0000020  R0000001   -26.          R0000002  43.         
    C0000020  R0000003  48.            R0000004  37.         
    C0000020  R0000005  6.             R0000006   -34.       
    C0000020  R0000007  18.            R0000008  34.         
    C0000020  R0000009   -29.       
    C0000021  OBJROW    4.             R0000000  27.         
    C0000021  R0000001   -44.          R0000002  17.         
    C0000021  R0000003  48.            R0000004  21.         
    C0000021  R0000005  42.            R0000007   -28.       
    C0000021  R0000008  20.            R0000009  16.         
    C0000022  OBJROW    15.            R0000000  17.         
    C0000022  R0000003   -27.          R0000004   -30.       
    C0000022  R0000005  44.            R0000006   -19.       
    C0000022  R0000007   -50.          R0000008  40.         
    C0000023  OBJROW    13.            R0000000  27.         
    C0000023  R0000001   -18.          R0000003  31.         
    C0000023  R0000004   -3.           R0000005   -19.       
    C0000023  R0000007  1.             R0000008   -16.       
    C0000024  OBJROW     -25.          R0000000   -32.       
    C0000024  R0000002  19.            R0000004   -6.        
    C0000024  R0000005   -38.          R0000007  48.         
    C0000024  R0000008   -12.       
RHS
    RHS       R0000000  83.            R0000001   -133.      
    RHS       R0000002  30.            R0000003  360.        
    RHS       R0000004   -272.         R0000005  594.        
    RHS       R0000006   -230.         R0000007   -497.      
    RHS       R0000008   -50.          R0000009   -263.      
BOUNDS
 UI BOUND     C0000000  500.        
 UI BOUND     C0000001  500.        
 UI BOUND     C0000002  500.        
 UI BOUND     C0000003  500.        
 UI BOUND     C0000004  500.        
 UI BOUND     C0000005  500.        
 UI BOUND     C0000006  500.        
 UI BOUND     C0000007  500.        
 UI BOUND     C0000008  500.        
 UI BOUND     C0000009  500.        
 UI BOUND     C0000010  500.        
 UI BOUND     C0000011  500.        
 UI BOUND     C0000012  500.        
 UI BOUND     C0000013  500.        
 UI BOUND     C0000014  500.        
 UI BOUND     C0000015  500.        
 UI BOUND     C0000016  500.        
 UI BOUND     C0000017  500.        
 UI BOUND     C0000018  500.        
 UI BOUND     C0000019  500.        
 UI BOUND     C0000020  500.        
 UI BOUND     C0000021  500.        
 UI BOUND     C0000022  500.        
 UI BOUND     C0000023  500.        
 UI BOUND     C0000024  500.        
ENDATA
