NAME          BLANK   
ROWS
 N  OBJROW
 L  R0000000
 L  R0000001
 L  R0000002
 L  R0000003
 L  R0000004
 L  R0000005
 L  R0000006
 L  R0000007
 L  R0000008
 L  R0000009
COLUMNS
    C0000000  OBJROW     -32.          R0000002  34.         
    C0000000  R0000003   -28.          R0000004   -21.       
    C0000000  R0000005  4.             R0000007  8.          
    C0000000  R0000008   -26.       
    C0000001  OBJROW    34.            R0000000  25.         
    C0000001  R0000005   -40.          R0000006  21.         
    C0000001  R0000009  16.         
    C0000002  OBJROW    17.            R0000000   -19.       
    C0000002  R0000001  35.            R0000003  29.         
    C0000002  R0000004  20.            R0000005  33.         
    C0000002  R0000007   -10.       
    C0000003  OBJROW     -9.           R0000001  38.         
    C0000003  R0000002   -25.          R0000003   -10.       
    C0000003  R0000004  21.            R0000005  10.         
    C0000003  R0000006   -42.          R0000007   -23.       
    C0000003  R0000008  45.            R0000009   -37.       
    C0000004  OBJROW     -4.           R0000000  31.         
    C0000004  R0000001   -41.          R0000002   -50.       
    C0000004  R0000004   -9.           R0000005  6.          
    C0000004  R0000006  30.            R0000007   -18.       
    C0000004  R0000008   -7.           R0000009   -38.       
    C0000005  OBJROW     -1.           R0000000  1.          
    C0000005  R0000004  20.            R0000005   -8.        
    C0000005  R0000006   -40.          R0000008  11.         
    C0000005  R0000009   -21.       
    C0000006  OBJROW     -1.           R0000000  35.         
    C0000006  R0000002  47.            R0000003  46.         
    C0000006  R0000004   -18.          R0000005  13.         
    C0000006  R0000006  47.            R0000007  29.         
    C0000006  R0000008   -28.       
    C0000007  OBJROW     -37.          R0000000  4.          
    C0000007  R0000001  6.             R0000002  19.         
    C0000007  R0000004   -37.          R0000005   -15.       
    C0000007  R0000007   -18.          R0000008   -24.       
    C0000008  OBJROW    22.            R0000000   -11.       
    C0000008  R0000001   -1.           R0000004   -23.       
    C0000008  R0000006   -35.          R0000008   -5.        
    C0000008  R0000009   -13.       
    C0000009  OBJROW    36.            R0000000  16.         
    C0000009  R0000004   -43.          R0000005   -26.       
    C0000009  R0000006   -36.          R0000008  36.         
    C0000010  OBJROW    28.            R0000004  28.         
    C0000010  R0000005  38.            R0000006   -2.        
    C0000010  R0000009  8.          
    C0000011  OBJROW    35.            R0000002   -39.       
    C0000011  R0000003   -23.          R0000004  37.         
    C0000011  R0000005   -11.          R0000006  34.         
    C0000011  R0000009  41.         
    C0000012  OBJROW     -6.           R0000000   -21.       
    C0000012  R0000001  15.            R0000005  22.         
    C0000012  R0000006  16.         
    C0000013  OBJROW     -31.          R0000001   -45.       
    C0000013  R0000003   -24.          R0000004   -11.       
    C0000013  R0000005  37.         
    C0000014  OBJROW     -17.          R0000000   -34.       
    C0000014  R0000001  18.            R0000005   -21.       
    C0000014  R0000006  43.            R0000009   -2.        
    C0000015  OBJROW    13.            R0000003   -29.       
    C0000015  R0000004   -37.          R0000005   -46.       
    C0000015  R0000006  22.            R0000007  4.          
    C0000015  R0000008   -18.          R0000009  1.          
    C0000016  OBJROW     -46.          R0000000   -32.       
    C0000016  R0000003  5.             R0000004   -17.       
    C0000016  R0000005  47.            R0000006   -49.       
    C0000016  R0000008   -11.          R0000009   -43.       
    C0000017  OBJROW    46.            R0000000   -4.        
    C0000017  R0000001  9.             R0000003  16.         
    C0000017  R0000004   -23.          R0000005   -36.       
    C0000017  R0000006  23.            R0000007  32.         
    C0000018  OBJROW     -20.          R0000001   -41.       
    C0000018  R0000002   -45.          R0000004   -40.       
    C0000018  R0000005  21.            R0000007  17.         
    C0000018  R0000008   -6.           R0000009  42.         
    C0000019  OBJROW    13.            R0000000  22.         
    C0000019  R0000001  17.            R0000004  17.         
    C0000019  R0000005  11.            R0000006   -47.       
    C0000019  R0000007  16.            R0000009   -19.       
RHS
    RHS       R0000000  93.            R0000001  24.         
    RHS       R0000002  145.           R0000003   -10.       
    RHS       R0000004   -149.         R0000005   -65.       
    RHS       R0000006  49.            R0000007  93.         
    RHS       R0000008   -67.          R0000009  36.         
BOUNDS
 UI BOUND     C0000000  500.        
 UI BOUND     C0000001  500.        
 UI BOUND     C0000002  500.        
 UI BOUND     C0000003  500.        
 UI BOUND     C0000004  500.        
 UI BOUND     C0000005  500.        
 UI BOUND     C0000006  500.        
 UI BOUND     C0000007  500.        
 UI BOUND     C0000008  500.        
 UI BOUND     C0000009  500.        
 UI BOUND     C0000010  500.        
 UI BOUND     C0000011  500.        
 UI BOUND     C0000012  500.        
 UI BOUND     C0000013  500.        
 UI BOUND     C0000014  500.        
 UI BOUND     C0000015  500.        
 UI BOUND     C0000016  500.        
 UI BOUND     C0000017  500.        
 UI BOUND     C0000018  500.        
 UI BOUND     C0000019  500.        
ENDATA
