NAME          BLANK   
ROWS
 N  OBJROW
 L  R0000000
 L  R0000001
 L  R0000002
 L  R0000003
 L  R0000004
 L  R0000005
 L  R0000006
 L  R0000007
 L  R0000008
 L  R0000009
 L  R0000010
 L  R0000011
 L  R0000012
 L  R0000013
 L  R0000014
COLUMNS
    C0000000  OBJROW     -49.          R0000001  47.         
    C0000000  R0000002  42.            R0000004  47.         
    C0000000  R0000005   -45.          R0000006  46.         
    C0000000  R0000009  17.            R0000010   -44.       
    C0000000  R0000011   -12.          R0000012  17.         
    C0000001  OBJROW     -1.           R0000001   -44.       
    C0000001  R0000002  33.            R0000003   -22.       
    C0000001  R0000005   -13.          R0000008  43.         
    C0000001  R0000009  42.            R0000010   -23.       
    C0000001  R0000011  13.            R0000012   -12.       
    C0000001  R0000013  15.            R0000014   -5.        
    C0000002  OBJROW    21.            R0000002   -43.       
    C0000002  R0000004   -12.          R0000005  26.         
    C0000002  R0000006   -43.          R0000007   -36.       
    C0000002  R0000009  10.            R0000010  38.         
    C0000002  R0000011   -1.           R0000012   -49.       
    C0000002  R0000014  16.         
    C0000003  OBJROW     -38.          R0000001  11.         
    C0000003  R0000002  18.            R0000003  40.         
    C0000003  R0000005  2.             R0000006   -30.       
    C0000003  R0000008   -7.           R0000010   -31.       
    C0000003  R0000012   -21.          R0000013  28.         
    C0000003  R0000014   -2.        
    C0000004  OBJROW     -28.          R0000001  1.          
    C0000004  R0000002  17.            R0000003   -7.        
    C0000004  R0000005  45.            R0000007   -37.       
    C0000004  R0000008  26.            R0000009   -8.        
    C0000004  R0000010   -7.           R0000012  12.         
    C0000004  R0000013  11.            R0000014  30.         
    C0000005  OBJROW    18.            R0000000  2.          
    C0000005  R0000001   -39.          R0000003   -4.        
    C0000005  R0000005   -2.           R0000007   -50.       
    C0000005  R0000008  24.            R0000009  48.         
    C0000005  R0000010   -15.          R0000011  14.         
    C0000005  R0000012  47.            R0000014   -36.       
    C0000006  OBJROW     -14.          R0000000   -29.       
    C0000006  R0000001   -7.           R0000002   -19.       
    C0000006  R0000003   -45.          R0000004   -35.       
    C0000006  R0000005   -5.           R0000008   -28.       
    C0000006  R0000009   -10.          R0000010   -43.       
    C0000006  R0000012  10.            R0000013  4.          
    C0000006  R0000014  42.         
    C0000007  OBJROW     -5.           R0000000  10.         
    C0000007  R0000001  6.             R0000003  49.         
    C0000007  R0000004   -18.          R0000005   -17.       
    C0000007  R0000006  50.            R0000007  10.         
    C0000007  R0000008  19.            R0000010  3.          
    C0000007  R0000012  9.             R0000014   -38.       
    C0000008  OBJROW     -3.           R0000000   -29.       
    C0000008  R0000001   -36.          R0000003   -22.       
    C0000008  R0000004  32.            R0000005  50.         
    C0000008  R0000006  31.            R0000007   -3.        
    C0000008  R0000008   -4.           R0000009  4.          
    C0000008  R0000010   -30.          R0000011   -42.       
    C0000008  R0000012   -41.          R0000014   -9.        
    C0000009  OBJROW    11.            R0000001  44.         
    C0000009  R0000002  43.            R0000003   -21.       
    C0000009  R0000004   -29.          R0000005   -23.       
    C0000009  R0000006  10.            R0000008   -8.        
    C0000009  R0000009   -22.          R0000010   -25.       
    C0000009  R0000011   -13.          R0000012   -21.       
    C0000009  R0000014   -44.       
    C0000010  OBJROW    7.             R0000000  41.         
    C0000010  R0000001   -28.          R0000002  43.         
    C0000010  R0000003   -9.           R0000004   -19.       
    C0000010  R0000005  42.            R0000007  13.         
    C0000010  R0000009  7.             R0000010   -11.       
    C0000010  R0000012  30.            R0000014  42.         
    C0000011  OBJROW    12.            R0000000  43.         
    C0000011  R0000001   -20.          R0000003   -43.       
    C0000011  R0000004  9.             R0000005   -31.       
    C0000011  R0000006   -3.           R0000007  32.         
    C0000011  R0000008   -14.          R0000009   -21.       
    C0000011  R0000010   -2.           R0000012  44.         
    C0000011  R0000013  16.            R0000014   -2.        
    C0000012  OBJROW     -32.          R0000000  5.          
    C0000012  R0000001   -45.          R0000002  44.         
    C0000012  R0000003   -22.          R0000004  49.         
    C0000012  R0000008  40.            R0000009  38.         
    C0000012  R0000010  28.            R0000011   -2.        
    C0000012  R0000012  23.            R0000014  16.         
    C0000013  OBJROW    31.            R0000002   -36.       
    C0000013  R0000003   -41.          R0000008   -30.       
    C0000013  R0000009  22.            R0000010  42.         
    C0000013  R0000011  13.            R0000012  43.         
    C0000013  R0000014  25.         
    C0000014  OBJROW     -2.           R0000000   -20.       
    C0000014  R0000001  26.            R0000002   -23.       
    C0000014  R0000003  20.            R0000005  31.         
    C0000014  R0000006  15.            R0000007  19.         
    C0000014  R0000008  1.             R0000010  10.         
    C0000014  R0000012  16.            R0000013  48.         
    C0000014  R0000014   -37.       
    C0000015  OBJROW     -40.          R0000000   -37.       
    C0000015  R0000001   -40.          R0000002  14.         
    C0000015  R0000003   -28.          R0000005   -39.       
    C0000015  R0000007   -48.          R0000010  39.         
    C0000015  R0000012   -5.           R0000013  13.         
    C0000016  OBJROW    46.            R0000001  25.         
    C0000016  R0000002  40.            R0000003  30.         
    C0000016  R0000004   -17.          R0000005   -19.       
    C0000016  R0000008  25.            R0000010   -24.       
    C0000016  R0000011  27.            R0000012  46.         
    C0000016  R0000013  34.            R0000014  41.         
    C0000017  OBJROW    14.            R0000001   -45.       
    C0000017  R0000002  47.            R0000003  36.         
    C0000017  R0000004  12.            R0000005   -28.       
    C0000017  R0000006  44.            R0000007   -34.       
    C0000017  R0000008   -40.          R0000009  41.         
    C0000017  R0000010  43.            R0000011  47.         
    C0000017  R0000012  10.            R0000014  9.          
    C0000018  OBJROW    5.             R0000003  6.          
    C0000018  R0000005   -29.          R0000007   -4.        
    C0000018  R0000008  37.            R0000009  24.         
    C0000018  R0000010   -44.          R0000011   -39.       
    C0000018  R0000012  16.            R0000013   -1.        
    C0000018  R0000014  37.         
    C0000019  OBJROW     -10.          R0000000  32.         
    C0000019  R0000001  5.             R0000002  3.          
    C0000019  R0000003   -22.          R0000004  46.         
    C0000019  R0000005   -5.           R0000009  40.         
    C0000019  R0000010  11.            R0000011   -36.       
    C0000019  R0000012  47.            R0000013  11.         
    C0000019  R0000014  30.         
    C0000020  OBJROW    20.            R0000001   -1.        
    C0000020  R0000002   -3.           R0000003   -26.       
    C0000020  R0000004  7.             R0000005   -8.        
    C0000020  R0000007   -21.          R0000008   -28.       
    C0000020  R0000009  16.            R0000010   -16.       
    C0000020  R0000011  8.             R0000012  31.         
    C0000020  R0000013   -28.          R0000014  27.         
    C0000021  OBJROW    23.            R0000000  6.          
    C0000021  R0000001  15.            R0000003  38.         
    C0000021  R0000004  46.            R0000005  2.          
    C0000021  R0000006   -10.          R0000007   -20.       
    C0000021  R0000008   -23.          R0000009  15.         
    C0000021  R0000010   -43.          R0000011  35.         
    C0000021  R0000012   -4.           R0000013  30.         
    C0000021  R0000014  3.          
    C0000022  OBJROW     -4.           R0000001  46.         
    C0000022  R0000002   -36.          R0000003   -3.        
    C0000022  R0000004   -16.          R0000005  47.         
    C0000022  R0000006  16.            R0000007   -39.       
    C0000022  R0000008   -28.          R0000009  20.         
    C0000022  R0000010   -17.          R0000012  20.         
    C0000022  R0000013  4.             R0000014   -46.       
    C0000023  OBJROW    35.            R0000000  24.         
    C0000023  R0000001  19.            R0000003   -13.       
    C0000023  R0000007   -20.          R0000008   -29.       
    C0000023  R0000009   -46.          R0000010  47.         
    C0000023  R0000011  42.            R0000012   -21.       
    C0000023  R0000013  39.            R0000014   -33.       
    C0000024  OBJROW     -13.          R0000000  49.         
    C0000024  R0000001  48.            R0000002  27.         
    C0000024  R0000003   -45.          R0000005   -30.       
    C0000024  R0000006   -19.          R0000008  29.         
    C0000024  R0000009   -28.          R0000010   -9.        
    C0000024  R0000012  26.            R0000013   -25.       
    C0000024  R0000014  35.         
RHS
    RHS       R0000000  482.           R0000001  373.        
    RHS       R0000002  474.           R0000003   -39.       
    RHS       R0000004  324.           R0000005   -165.      
    RHS       R0000006  156.           R0000007   -523.      
    RHS       R0000008   -65.          R0000009  780.        
    RHS       R0000010   -357.         R0000011   -86.       
    RHS       R0000012  813.           R0000013  122.        
    RHS       R0000014  694.        
BOUNDS
 UI BOUND     C0000000  500.        
 UI BOUND     C0000001  500.        
 UI BOUND     C0000002  500.        
 UI BOUND     C0000003  500.        
 UI BOUND     C0000004  500.        
 UI BOUND     C0000005  500.        
 UI BOUND     C0000006  500.        
 UI BOUND     C0000007  500.        
 UI BOUND     C0000008  500.        
 UI BOUND     C0000009  500.        
 UI BOUND     C0000010  500.        
 UI BOUND     C0000011  500.        
 UI BOUND     C0000012  500.        
 UI BOUND     C0000013  500.        
 UI BOUND     C0000014  500.        
 UI BOUND     C0000015  500.        
 UI BOUND     C0000016  500.        
 UI BOUND     C0000017  500.        
 UI BOUND     C0000018  500.        
 UI BOUND     C0000019  500.        
 UI BOUND     C0000020  500.        
 UI BOUND     C0000021  500.        
 UI BOUND     C0000022  500.        
 UI BOUND     C0000023  500.        
 UI BOUND     C0000024  500.        
ENDATA
