NAME          BLANK   
ROWS
 N  OBJROW
 L  R0000000
 L  R0000001
 L  R0000002
 L  R0000003
 L  R0000004
 L  R0000005
 L  R0000006
 L  R0000007
 L  R0000008
 L  R0000009
COLUMNS
    C0000000  OBJROW     -26.          R0000001   -15.       
    C0000000  R0000003  25.            R0000006   -23.       
    C0000000  R0000007   -12.          R0000008  3.          
    C0000000  R0000009  20.         
    C0000001  OBJROW    44.            R0000001   -45.       
    C0000001  R0000002   -25.          R0000003  22.         
    C0000001  R0000004  7.             R0000008   -4.        
    C0000001  R0000009  29.         
    C0000002  OBJROW     -32.          R0000001  40.         
    C0000002  R0000006  11.            R0000008  38.         
    C0000002  R0000009  7.          
    C0000003  OBJROW    7.             R0000001   -18.       
    C0000003  R0000002  8.             R0000006  25.         
    C0000003  R0000007  45.         
    C0000004  OBJROW    43.            R0000001  40.         
    C0000004  R0000002   -3.           R0000003   -50.       
    C0000004  R0000004   -47.          R0000005   -37.       
    C0000004  R0000007  49.            R0000008  24.         
    C0000004  R0000009  46.         
    C0000005  OBJROW     -19.          R0000000  7.          
    C0000005  R0000001   -12.          R0000004  16.         
    C0000005  R0000008   -18.          R0000009  33.         
    C0000006  OBJROW     -29.          R0000000  27.         
    C0000006  R0000001  30.            R0000003   -35.       
    C0000006  R0000007   -37.          R0000008  10.         
    C0000006  R0000009   -3.        
    C0000007  OBJROW     -45.          R0000000  34.         
    C0000007  R0000002   -47.          R0000003   -44.       
    C0000007  R0000005   -17.          R0000006  44.         
    C0000007  R0000007   -24.          R0000008   -1.        
    C0000007  R0000009  24.         
    C0000008  OBJROW     -19.          R0000000  48.         
    C0000008  R0000001   -25.          R0000002  17.         
    C0000008  R0000004   -29.          R0000005   -11.       
    C0000008  R0000007  9.             R0000008   -7.        
    C0000008  R0000009   -3.        
    C0000009  OBJROW     -19.          R0000000  21.         
    C0000009  R0000001   -22.          R0000002   -22.       
    C0000009  R0000003  1.             R0000004   -20.       
    C0000009  R0000005  49.            R0000006   -14.       
    C0000009  R0000007  41.            R0000008   -27.       
    C0000010  OBJROW    10.            R0000001  3.          
    C0000010  R0000002   -48.          R0000003  42.         
    C0000010  R0000004  29.            R0000007   -40.       
    C0000010  R0000008   -29.          R0000009  17.         
    C0000011  OBJROW     -14.          R0000003  39.         
    C0000011  R0000004   -29.          R0000007  11.         
    C0000011  R0000008   -36.       
    C0000012  OBJROW     -27.          R0000001   -12.       
    C0000012  R0000002   -4.           R0000003   -10.       
    C0000012  R0000005  1.             R0000007   -37.       
    C0000012  R0000008  10.            R0000009   -26.       
    C0000013  OBJROW    13.            R0000000   -29.       
    C0000013  R0000001   -15.          R0000002   -22.       
    C0000013  R0000005   -27.          R0000006  46.         
    C0000013  R0000009   -50.       
    C0000014  OBJROW    20.            R0000000   -43.       
    C0000014  R0000002  10.            R0000003  17.         
    C0000014  R0000004  20.            R0000005  31.         
    C0000014  R0000006  2.             R0000007   -3.        
    C0000014  R0000008  37.            R0000009   -37.       
    C0000015  OBJROW     -27.          R0000003  33.         
    C0000015  R0000004  27.            R0000006   -40.       
    C0000015  R0000009   -32.       
    C0000016  OBJROW    20.            R0000000  15.         
    C0000016  R0000003   -8.           R0000004   -45.       
    C0000016  R0000006   -8.           R0000007  18.         
    C0000016  R0000009   -24.       
    C0000017  OBJROW    38.            R0000001   -12.       
    C0000017  R0000002   -45.          R0000003  25.         
    C0000017  R0000005   -6.           R0000006  41.         
    C0000017  R0000007  28.            R0000008   -6.        
    C0000017  R0000009   -13.       
    C0000018  OBJROW    16.            R0000000  9.          
    C0000018  R0000001  25.            R0000002   -15.       
    C0000018  R0000003   -47.          R0000004  5.          
    C0000018  R0000006  40.            R0000008  27.         
    C0000018  R0000009  19.         
    C0000019  OBJROW     -11.          R0000001   -5.        
    C0000019  R0000004  3.             R0000006   -13.       
    C0000019  R0000008   -7.           R0000009  1.          
    C0000020  OBJROW     -36.          R0000000  47.         
    C0000020  R0000001  40.            R0000002  7.          
    C0000020  R0000008   -31.       
    C0000021  OBJROW    13.            R0000001  7.          
    C0000021  R0000003  26.            R0000005   -38.       
    C0000021  R0000008  13.            R0000009   -20.       
    C0000022  OBJROW     -30.          R0000001   -35.       
    C0000022  R0000002   -5.           R0000003  19.         
    C0000022  R0000004   -7.           R0000006  4.          
    C0000022  R0000007  9.             R0000009  42.         
    C0000023  OBJROW     -31.          R0000002  15.         
    C0000023  R0000004   -29.          R0000005   -26.       
    C0000023  R0000006  9.             R0000008  37.         
    C0000023  R0000009   -7.        
    C0000024  OBJROW     -34.          R0000001   -9.        
    C0000024  R0000002   -26.          R0000003  28.         
    C0000024  R0000008  4.             R0000009   -47.       
    C0000025  OBJROW    46.            R0000000   -29.       
    C0000025  R0000001   -1.           R0000002   -24.       
    C0000025  R0000004   -17.          R0000005   -17.       
    C0000025  R0000007  35.            R0000008   -7.        
    C0000025  R0000009   -36.       
    C0000026  OBJROW    32.            R0000001  20.         
    C0000026  R0000004  47.            R0000005  42.         
    C0000026  R0000007   -36.          R0000008  50.         
    C0000026  R0000009   -30.       
    C0000027  OBJROW     -40.          R0000001   -29.       
    C0000027  R0000002   -41.          R0000003   -17.       
    C0000027  R0000005   -41.          R0000007   -36.       
    C0000027  R0000008  37.            R0000009   -36.       
    C0000028  OBJROW    40.            R0000000   -16.       
    C0000028  R0000001   -11.          R0000003   -26.       
    C0000028  R0000006   -29.          R0000009   -40.       
    C0000029  OBJROW    2.             R0000001   -50.       
    C0000029  R0000002   -7.           R0000005  27.         
    C0000029  R0000006  7.             R0000008  4.          
RHS
    RHS       R0000000  139.           R0000001   -200.      
    RHS       R0000002   -303.         R0000003  55.         
    RHS       R0000004   -54.          R0000005  321.        
    RHS       R0000006   -130.         R0000007  135.        
    RHS       R0000008  253.           R0000009   -183.      
BOUNDS
 UI BOUND     C0000000  500.        
 UI BOUND     C0000001  500.        
 UI BOUND     C0000002  500.        
 UI BOUND     C0000003  500.        
 UI BOUND     C0000004  500.        
 UI BOUND     C0000005  500.        
 UI BOUND     C0000006  500.        
 UI BOUND     C0000007  500.        
 UI BOUND     C0000008  500.        
 UI BOUND     C0000009  500.        
 UI BOUND     C0000010  500.        
 UI BOUND     C0000011  500.        
 UI BOUND     C0000012  500.        
 UI BOUND     C0000013  500.        
 UI BOUND     C0000014  500.        
 UI BOUND     C0000015  500.        
 UI BOUND     C0000016  500.        
 UI BOUND     C0000017  500.        
 UI BOUND     C0000018  500.        
 UI BOUND     C0000019  500.        
 UI BOUND     C0000020  500.        
 UI BOUND     C0000021  500.        
 UI BOUND     C0000022  500.        
 UI BOUND     C0000023  500.        
 UI BOUND     C0000024  500.        
 UI BOUND     C0000025  500.        
 UI BOUND     C0000026  500.        
 UI BOUND     C0000027  500.        
 UI BOUND     C0000028  500.        
 UI BOUND     C0000029  500.        
ENDATA
