NAME          BLANK   
ROWS
 N  OBJROW
 L  R0000000
 L  R0000001
 L  R0000002
 L  R0000003
 L  R0000004
 L  R0000005
 L  R0000006
 L  R0000007
 L  R0000008
 L  R0000009
 L  R0000010
 L  R0000011
 L  R0000012
 L  R0000013
 L  R0000014
COLUMNS
    C0000000  OBJROW    27.            R0000000   -28.       
    C0000000  R0000001   -49.          R0000002  50.         
    C0000000  R0000004   -49.          R0000007   -15.       
    C0000000  R0000008   -36.          R0000009   -3.        
    C0000000  R0000010  25.            R0000011  12.         
    C0000000  R0000013  30.         
    C0000001  OBJROW     -11.          R0000000  36.         
    C0000001  R0000002   -11.          R0000003   -27.       
    C0000001  R0000004   -14.          R0000006   -29.       
    C0000001  R0000007   -13.          R0000009   -34.       
    C0000001  R0000010   -36.          R0000011  4.          
    C0000001  R0000014   -8.        
    C0000002  OBJROW    39.            R0000000  47.         
    C0000002  R0000002   -17.          R0000003  39.         
    C0000002  R0000004   -14.          R0000006   -21.       
    C0000002  R0000007   -31.          R0000008  11.         
    C0000002  R0000011  34.            R0000012  38.         
    C0000002  R0000013  12.            R0000014  41.         
    C0000003  OBJROW     -16.          R0000001  13.         
    C0000003  R0000002   -44.          R0000003   -10.       
    C0000003  R0000004  27.            R0000006  32.         
    C0000003  R0000007  17.            R0000008  30.         
    C0000003  R0000011  21.            R0000012  11.         
    C0000003  R0000014  33.         
    C0000004  OBJROW    46.            R0000002   -28.       
    C0000004  R0000003  24.            R0000004   -38.       
    C0000004  R0000006   -50.          R0000007  15.         
    C0000004  R0000008  42.            R0000010   -41.       
    C0000004  R0000011  43.            R0000012  5.          
    C0000004  R0000013   -11.          R0000014  35.         
    C0000005  OBJROW    42.            R0000000  10.         
    C0000005  R0000002  3.             R0000003  21.         
    C0000005  R0000004   -12.          R0000006   -17.       
    C0000005  R0000007   -41.          R0000008   -8.        
    C0000005  R0000010  30.            R0000011  50.         
    C0000005  R0000012  7.             R0000013  37.         
    C0000005  R0000014   -23.       
    C0000006  OBJROW     -17.          R0000000   -15.       
    C0000006  R0000001   -35.          R0000002  12.         
    C0000006  R0000003   -40.          R0000004   -48.       
    C0000006  R0000006   -41.          R0000008  10.         
    C0000006  R0000010   -31.          R0000011   -31.       
    C0000006  R0000013   -9.           R0000014  22.         
    C0000007  OBJROW     -4.           R0000001   -39.       
    C0000007  R0000002   -34.          R0000003   -3.        
    C0000007  R0000004  19.            R0000005  48.         
    C0000007  R0000007   -18.          R0000008  36.         
    C0000007  R0000009   -3.           R0000011  43.         
    C0000007  R0000014  28.         
    C0000008  OBJROW     -46.          R0000001   -27.       
    C0000008  R0000002   -39.          R0000003   -11.       
    C0000008  R0000004  34.            R0000007  49.         
    C0000008  R0000008   -50.          R0000009   -6.        
    C0000008  R0000010   -26.          R0000011   -4.        
    C0000008  R0000012  4.             R0000013  21.         
    C0000008  R0000014  40.         
    C0000009  OBJROW    16.            R0000000  2.          
    C0000009  R0000002   -28.          R0000004   -35.       
    C0000009  R0000005   -18.          R0000006  21.         
    C0000009  R0000007  41.            R0000008  40.         
    C0000009  R0000009   -47.          R0000011   -3.        
    C0000009  R0000012  34.            R0000013   -16.       
    C0000009  R0000014  18.         
    C0000010  OBJROW    12.            R0000001  40.         
    C0000010  R0000002  21.            R0000003   -40.       
    C0000010  R0000004   -31.          R0000006   -9.        
    C0000010  R0000007  36.            R0000008  33.         
    C0000010  R0000009   -39.          R0000010  30.         
    C0000010  R0000011   -5.           R0000012   -23.       
    C0000010  R0000014   -15.       
    C0000011  OBJROW     -33.          R0000001  28.         
    C0000011  R0000002   -36.          R0000003   -12.       
    C0000011  R0000004  7.             R0000008  6.          
    C0000011  R0000009   -40.          R0000010   -33.       
    C0000011  R0000011   -16.          R0000012  3.          
    C0000011  R0000013  47.            R0000014  8.          
    C0000012  OBJROW    35.            R0000000   -9.        
    C0000012  R0000002   -49.          R0000003  28.         
    C0000012  R0000004   -39.          R0000006  12.         
    C0000012  R0000007   -11.          R0000008   -40.       
    C0000012  R0000009  36.            R0000010   -46.       
    C0000012  R0000011  33.            R0000012   -29.       
    C0000012  R0000014   -5.        
    C0000013  OBJROW    38.            R0000000  11.         
    C0000013  R0000004   -22.          R0000007   -20.       
    C0000013  R0000008   -27.          R0000009  26.         
    C0000013  R0000010  50.            R0000011  17.         
    C0000013  R0000012  36.            R0000014   -23.       
    C0000014  OBJROW    3.             R0000000  31.         
    C0000014  R0000001   -7.           R0000002  7.          
    C0000014  R0000003  44.            R0000004  50.         
    C0000014  R0000005  3.             R0000006  33.         
    C0000014  R0000007  40.            R0000008  6.          
    C0000014  R0000009   -48.          R0000010   -4.        
    C0000014  R0000011  24.            R0000012  11.         
    C0000014  R0000014   -37.       
    C0000015  OBJROW     -8.           R0000000  4.          
    C0000015  R0000001  49.            R0000002   -2.        
    C0000015  R0000003   -36.          R0000004  13.         
    C0000015  R0000005  31.            R0000006  35.         
    C0000015  R0000007   -16.          R0000008   -29.       
    C0000015  R0000009  49.            R0000011  25.         
    C0000015  R0000012  10.            R0000014   -18.       
    C0000016  OBJROW    1.             R0000000   -24.       
    C0000016  R0000002   -13.          R0000003   -25.       
    C0000016  R0000004   -7.           R0000005   -31.       
    C0000016  R0000006   -5.           R0000007   -33.       
    C0000016  R0000008  24.            R0000009   -47.       
    C0000016  R0000010  31.            R0000011  12.         
    C0000016  R0000012   -13.          R0000013  50.         
    C0000016  R0000014  21.         
    C0000017  OBJROW     -42.          R0000000  14.         
    C0000017  R0000001   -29.          R0000002  14.         
    C0000017  R0000003  32.            R0000004   -25.       
    C0000017  R0000006  46.            R0000007   -9.        
    C0000017  R0000008   -35.          R0000010  12.         
    C0000017  R0000011   -14.          R0000012   -35.       
    C0000017  R0000013   -16.          R0000014  5.          
    C0000018  OBJROW    36.            R0000000   -13.       
    C0000018  R0000001   -13.          R0000002  37.         
    C0000018  R0000003   -35.          R0000004  48.         
    C0000018  R0000005  4.             R0000006  14.         
    C0000018  R0000007  23.            R0000008  13.         
    C0000018  R0000011   -37.          R0000012   -26.       
    C0000018  R0000013  17.            R0000014   -13.       
    C0000019  OBJROW     -39.          R0000001   -35.       
    C0000019  R0000002  45.            R0000004   -43.       
    C0000019  R0000005  33.            R0000006   -22.       
    C0000019  R0000007   -7.           R0000008   -20.       
    C0000019  R0000009   -23.          R0000010  50.         
    C0000019  R0000011  23.            R0000012  16.         
    C0000019  R0000014   -38.       
    C0000020  OBJROW     -49.          R0000000   -18.       
    C0000020  R0000002  1.             R0000003   -9.        
    C0000020  R0000004   -30.          R0000007   -49.       
    C0000020  R0000008  4.             R0000009  43.         
    C0000020  R0000010   -17.          R0000011  2.          
    C0000020  R0000012   -6.           R0000013   -26.       
    C0000020  R0000014  41.         
    C0000021  OBJROW    18.            R0000000   -47.       
    C0000021  R0000003  3.             R0000004  43.         
    C0000021  R0000006  32.            R0000008  9.          
    C0000021  R0000011   -37.          R0000012  26.         
    C0000021  R0000013   -50.          R0000014  7.          
    C0000022  OBJROW    45.            R0000000   -13.       
    C0000022  R0000002  46.            R0000003   -42.       
    C0000022  R0000004  48.            R0000005  8.          
    C0000022  R0000006  19.            R0000008   -41.       
    C0000022  R0000010  21.            R0000011   -22.       
    C0000022  R0000012   -1.           R0000014  31.         
    C0000023  OBJROW    17.            R0000000   -45.       
    C0000023  R0000001  28.            R0000002   -25.       
    C0000023  R0000003  2.             R0000004  50.         
    C0000023  R0000006   -41.          R0000009   -24.       
    C0000023  R0000011   -30.          R0000012   -22.       
    C0000024  OBJROW     -15.          R0000001  40.         
    C0000024  R0000002   -16.          R0000003  7.          
    C0000024  R0000004   -37.          R0000005   -37.       
    C0000024  R0000006  17.            R0000009  43.         
    C0000024  R0000011   -17.          R0000012   -25.       
    C0000024  R0000014  30.         
    C0000025  OBJROW     -14.          R0000000  18.         
    C0000025  R0000003   -18.          R0000004   -29.       
    C0000025  R0000006  17.            R0000011   -40.       
    C0000025  R0000012   -17.          R0000013  14.         
    C0000025  R0000014  45.         
    C0000026  OBJROW    10.            R0000000  22.         
    C0000026  R0000002  27.            R0000003   -41.       
    C0000026  R0000004  14.            R0000006   -6.        
    C0000026  R0000007   -48.          R0000009   -11.       
    C0000026  R0000010  29.            R0000011  28.         
    C0000026  R0000013   -42.          R0000014   -45.       
    C0000027  OBJROW    26.            R0000003  34.         
    C0000027  R0000004  36.            R0000006   -5.        
    C0000027  R0000007  34.            R0000008   -49.       
    C0000027  R0000010  22.            R0000011   -40.       
    C0000027  R0000012   -14.          R0000013  49.         
    C0000027  R0000014   -44.       
    C0000028  OBJROW    3.             R0000000  24.         
    C0000028  R0000003  16.            R0000004   -27.       
    C0000028  R0000005   -18.          R0000008  47.         
    C0000028  R0000009   -32.          R0000011  13.         
    C0000028  R0000012  10.            R0000013   -37.       
    C0000028  R0000014   -16.       
    C0000029  OBJROW    22.            R0000001   -16.       
    C0000029  R0000002  30.            R0000003   -2.        
    C0000029  R0000004  31.            R0000005  21.         
    C0000029  R0000006   -9.           R0000007   -4.        
    C0000029  R0000008   -19.          R0000009   -24.       
    C0000029  R0000010  26.            R0000011   -14.       
    C0000029  R0000012   -36.          R0000013  33.         
    C0000029  R0000014   -25.       
RHS
    RHS       R0000000  33.            R0000001   -198.      
    RHS       R0000002   -339.         R0000003  140.        
    RHS       R0000004   -498.         R0000005   -222.      
    RHS       R0000006   -124.         R0000007   -156.      
    RHS       R0000008  132.           R0000009  48.         
    RHS       R0000010   -7.           R0000011  286.        
    RHS       R0000012  148.           R0000013   -60.       
    RHS       R0000014  173.        
BOUNDS
 UI BOUND     C0000000  500.        
 UI BOUND     C0000001  500.        
 UI BOUND     C0000002  500.        
 UI BOUND     C0000003  500.        
 UI BOUND     C0000004  500.        
 UI BOUND     C0000005  500.        
 UI BOUND     C0000006  500.        
 UI BOUND     C0000007  500.        
 UI BOUND     C0000008  500.        
 UI BOUND     C0000009  500.        
 UI BOUND     C0000010  500.        
 UI BOUND     C0000011  500.        
 UI BOUND     C0000012  500.        
 UI BOUND     C0000013  500.        
 UI BOUND     C0000014  500.        
 UI BOUND     C0000015  500.        
 UI BOUND     C0000016  500.        
 UI BOUND     C0000017  500.        
 UI BOUND     C0000018  500.        
 UI BOUND     C0000019  500.        
 UI BOUND     C0000020  500.        
 UI BOUND     C0000021  500.        
 UI BOUND     C0000022  500.        
 UI BOUND     C0000023  500.        
 UI BOUND     C0000024  500.        
 UI BOUND     C0000025  500.        
 UI BOUND     C0000026  500.        
 UI BOUND     C0000027  500.        
 UI BOUND     C0000028  500.        
 UI BOUND     C0000029  500.        
ENDATA
