NAME          BLANK   
ROWS
 N  OBJROW
 L  R0000000
 L  R0000001
 L  R0000002
 L  R0000003
 L  R0000004
 L  R0000005
 L  R0000006
 L  R0000007
 L  R0000008
 L  R0000009
COLUMNS
    C0000000  OBJROW     -25.          R0000002   -5.        
    C0000000  R0000003  27.            R0000005  18.         
    C0000000  R0000006  43.            R0000007   -38.       
    C0000000  R0000008  11.         
    C0000001  OBJROW     -44.          R0000003   -36.       
    C0000001  R0000005  24.            R0000006   -31.       
    C0000001  R0000008   -7.           R0000009  48.         
    C0000002  OBJROW    36.            R0000000   -6.        
    C0000002  R0000001  34.            R0000002  11.         
    C0000002  R0000004   -23.          R0000005  14.         
    C0000002  R0000006   -13.          R0000007   -1.        
    C0000002  R0000008  36.            R0000009   -3.        
    C0000003  OBJROW     -48.          R0000000  45.         
    C0000003  R0000001  34.            R0000002  31.         
    C0000003  R0000003  39.            R0000005   -5.        
    C0000003  R0000007   -40.          R0000008  6.          
    C0000003  R0000009  50.         
    C0000004  OBJROW     -4.           R0000000  45.         
    C0000004  R0000001   -21.          R0000003  31.         
    C0000004  R0000004  38.            R0000005   -18.       
    C0000004  R0000007  44.            R0000008   -27.       
    C0000004  R0000009  12.         
    C0000005  OBJROW     -18.          R0000000   -45.       
    C0000005  R0000001  32.            R0000002  18.         
    C0000005  R0000003  9.             R0000004   -41.       
    C0000005  R0000005  6.             R0000006   -48.       
    C0000005  R0000007  28.            R0000008  2.          
    C0000005  R0000009  39.         
    C0000006  OBJROW    25.            R0000002  25.         
    C0000006  R0000003  37.            R0000005  47.         
    C0000006  R0000006  49.            R0000008  48.         
    C0000006  R0000009   -35.       
    C0000007  OBJROW     -1.           R0000002   -41.       
    C0000007  R0000003   -38.          R0000004  35.         
    C0000007  R0000005   -21.          R0000006  4.          
    C0000007  R0000007   -4.           R0000008   -46.       
    C0000007  R0000009   -21.       
    C0000008  OBJROW    35.            R0000000  26.         
    C0000008  R0000001  24.            R0000005  4.          
    C0000008  R0000006   -33.          R0000007   -28.       
    C0000008  R0000008  15.         
    C0000009  OBJROW    22.            R0000000  35.         
    C0000009  R0000001  16.            R0000003   -35.       
    C0000009  R0000005   -45.          R0000007   -27.       
    C0000009  R0000008  31.            R0000009  14.         
    C0000010  OBJROW     -27.          R0000001   -49.       
    C0000010  R0000002   -1.           R0000003   -28.       
    C0000010  R0000006   -1.           R0000007  3.          
    C0000010  R0000008   -21.          R0000009   -16.       
    C0000011  OBJROW     -20.          R0000001   -18.       
    C0000011  R0000002  7.             R0000003  49.         
    C0000011  R0000004  28.            R0000006  36.         
    C0000011  R0000007  35.            R0000008  32.         
    C0000011  R0000009   -24.       
    C0000012  OBJROW    12.            R0000001   -12.       
    C0000012  R0000002  47.            R0000003  4.          
    C0000012  R0000004   -46.          R0000005  48.         
    C0000012  R0000006   -12.          R0000007   -6.        
    C0000012  R0000008   -7.           R0000009   -13.       
    C0000013  OBJROW     -18.          R0000001   -6.        
    C0000013  R0000002  18.            R0000003   -13.       
    C0000013  R0000005   -47.          R0000006   -25.       
    C0000014  OBJROW    5.             R0000000   -17.       
    C0000014  R0000001  23.            R0000002   -36.       
    C0000014  R0000003  40.            R0000004   -46.       
    C0000014  R0000005   -21.          R0000006   -50.       
    C0000014  R0000008   -47.          R0000009   -3.        
    C0000015  OBJROW    3.             R0000000  23.         
    C0000015  R0000002   -8.           R0000003   -45.       
    C0000015  R0000004  29.            R0000005  14.         
    C0000015  R0000007  29.            R0000008  39.         
    C0000015  R0000009  41.         
    C0000016  OBJROW    7.             R0000001   -30.       
    C0000016  R0000002  38.            R0000003  18.         
    C0000016  R0000004   -34.          R0000005  22.         
    C0000016  R0000006  22.            R0000009   -19.       
    C0000017  OBJROW     -46.          R0000003   -10.       
    C0000017  R0000005  23.            R0000006  7.          
    C0000017  R0000008   -1.        
    C0000018  OBJROW     -18.          R0000000  42.         
    C0000018  R0000001   -25.          R0000002   -10.       
    C0000018  R0000003  39.            R0000005  39.         
    C0000018  R0000008  8.             R0000009   -44.       
    C0000019  OBJROW    27.            R0000000   -42.       
    C0000019  R0000002  14.            R0000003   -29.       
    C0000019  R0000004  8.             R0000005  48.         
    C0000019  R0000006  6.             R0000009  47.         
RHS
    RHS       R0000000  242.           R0000001  201.        
    RHS       R0000002  360.           R0000003  475.        
    RHS       R0000004   -231.         R0000005  77.         
    RHS       R0000006   -46.          R0000007   -101.      
    RHS       R0000008  420.           R0000009  93.         
BOUNDS
 UI BOUND     C0000000  500.        
 UI BOUND     C0000001  500.        
 UI BOUND     C0000002  500.        
 UI BOUND     C0000003  500.        
 UI BOUND     C0000004  500.        
 UI BOUND     C0000005  500.        
 UI BOUND     C0000006  500.        
 UI BOUND     C0000007  500.        
 UI BOUND     C0000008  500.        
 UI BOUND     C0000009  500.        
 UI BOUND     C0000010  500.        
 UI BOUND     C0000011  500.        
 UI BOUND     C0000012  500.        
 UI BOUND     C0000013  500.        
 UI BOUND     C0000014  500.        
 UI BOUND     C0000015  500.        
 UI BOUND     C0000016  500.        
 UI BOUND     C0000017  500.        
 UI BOUND     C0000018  500.        
 UI BOUND     C0000019  500.        
ENDATA
