NAME          BLANK   
ROWS
 N  OBJROW
 L  R0000000
 L  R0000001
 L  R0000002
 L  R0000003
 L  R0000004
COLUMNS
    C0000000  OBJROW    11.            R0000003   -28.       
    C0000000  R0000004   -17.       
    C0000001  OBJROW    8.             R0000000   -19.       
    C0000001  R0000001   -21.          R0000002   -10.       
    C0000001  R0000003  17.            R0000004   -9.        
    C0000002  OBJROW    31.            R0000002  33.         
    C0000002  R0000003  31.            R0000004   -33.       
    C0000003  OBJROW     -6.           R0000000  20.         
    C0000003  R0000001   -34.          R0000002   -36.       
    C0000003  R0000003  32.         
    C0000004  OBJROW     -28.          R0000000  21.         
    C0000004  R0000001  15.            R0000002   -48.       
    C0000004  R0000003  7.          
    C0000005  OBJROW    19.            R0000000   -49.       
    C0000005  R0000004   -36.       
    C0000006  OBJROW    16.            R0000001   -10.       
    C0000006  R0000002  49.            R0000003  42.         
    C0000007  OBJROW    17.            R0000000   -45.       
    C0000007  R0000001  11.            R0000004   -31.       
    C0000008  OBJROW    4.             R0000000   -11.       
    C0000008  R0000003   -32.          R0000004  42.         
    C0000009  OBJROW     -49.          R0000000   -10.       
    C0000009  R0000002   -20.          R0000003   -7.        
    C0000009  R0000004  15.         
RHS
    RHS       R0000000   -282.         R0000001   -57.       
    RHS       R0000002   -173.         R0000003  113.        
    RHS       R0000004   -455.      
BOUNDS
 UI BOUND     C0000000  500.        
 UI BOUND     C0000001  500.        
 UI BOUND     C0000002  500.        
 UI BOUND     C0000003  500.        
 UI BOUND     C0000004  500.        
 UI BOUND     C0000005  500.        
 UI BOUND     C0000006  500.        
 UI BOUND     C0000007  500.        
 UI BOUND     C0000008  500.        
 UI BOUND     C0000009  500.        
ENDATA
