NAME          BLANK   
ROWS
 N  OBJROW
 L  R0000000
 L  R0000001
 L  R0000002
 L  R0000003
 L  R0000004
 L  R0000005
 L  R0000006
 L  R0000007
 L  R0000008
 L  R0000009
 L  R0000010
 L  R0000011
 L  R0000012
 L  R0000013
 L  R0000014
COLUMNS
    C0000000  OBJROW     -12.          R0000001  17.         
    C0000000  R0000002  22.            R0000003   -44.       
    C0000000  R0000005   -32.          R0000008   -25.       
    C0000000  R0000009  34.            R0000013  42.         
    C0000001  OBJROW     -44.          R0000001  5.          
    C0000001  R0000002  34.            R0000004  7.          
    C0000001  R0000005  7.             R0000006   -13.       
    C0000001  R0000008  50.            R0000009   -18.       
    C0000001  R0000010   -36.          R0000012  9.          
    C0000002  OBJROW    17.            R0000001  22.         
    C0000002  R0000002  31.            R0000003   -18.       
    C0000002  R0000004  1.             R0000005   -10.       
    C0000002  R0000009  18.            R0000010  23.         
    C0000002  R0000011   -2.           R0000014   -9.        
    C0000003  OBJROW    6.             R0000000   -43.       
    C0000003  R0000002  33.            R0000005  16.         
    C0000003  R0000008  31.            R0000009  22.         
    C0000003  R0000010  31.            R0000011  49.         
    C0000003  R0000013   -19.          R0000014  18.         
    C0000004  OBJROW     -40.          R0000001  43.         
    C0000004  R0000002   -34.          R0000004  4.          
    C0000004  R0000005  44.            R0000006  24.         
    C0000004  R0000009   -7.           R0000010   -4.        
    C0000004  R0000011   -31.          R0000012  15.         
    C0000004  R0000013   -9.        
    C0000005  OBJROW     -34.          R0000000   -10.       
    C0000005  R0000001  16.            R0000002  8.          
    C0000005  R0000003  37.            R0000004   -34.       
    C0000005  R0000006  10.            R0000008  39.         
    C0000005  R0000009   -38.          R0000010   -38.       
    C0000005  R0000012   -26.          R0000013   -18.       
    C0000006  OBJROW    39.            R0000000  50.         
    C0000006  R0000002  8.             R0000003  33.         
    C0000006  R0000004  13.            R0000008  25.         
    C0000006  R0000009  1.             R0000010  42.         
    C0000006  R0000012   -37.       
    C0000007  OBJROW     -18.          R0000000   -46.       
    C0000007  R0000001   -11.          R0000003  48.         
    C0000007  R0000004   -36.          R0000005  33.         
    C0000007  R0000006  20.            R0000007   -6.        
    C0000007  R0000009  48.            R0000010   -37.       
    C0000007  R0000011  49.            R0000012   -46.       
    C0000007  R0000013   -36.          R0000014  23.         
    C0000008  OBJROW    36.            R0000001   -40.       
    C0000008  R0000002   -41.          R0000003   -8.        
    C0000008  R0000004  29.            R0000005  15.         
    C0000008  R0000009  1.             R0000010   -16.       
    C0000008  R0000012  42.            R0000013   -18.       
    C0000008  R0000014  16.         
    C0000009  OBJROW     -31.          R0000000   -7.        
    C0000009  R0000001  24.            R0000002  24.         
    C0000009  R0000004  1.             R0000007   -35.       
    C0000009  R0000010   -16.          R0000014  45.         
    C0000010  OBJROW    36.            R0000000   -40.       
    C0000010  R0000004  12.            R0000008  50.         
    C0000010  R0000009  22.            R0000010   -44.       
    C0000010  R0000012   -38.          R0000013  21.         
    C0000010  R0000014   -10.       
    C0000011  OBJROW     -19.          R0000001   -32.       
    C0000011  R0000002   -31.          R0000003  3.          
    C0000011  R0000004  34.            R0000006   -1.        
    C0000011  R0000008  21.            R0000009   -22.       
    C0000011  R0000010   -5.           R0000014   -36.       
    C0000012  OBJROW    35.            R0000000  49.         
    C0000012  R0000002   -36.          R0000003   -12.       
    C0000012  R0000004   -7.           R0000005   -18.       
    C0000012  R0000008   -32.          R0000009  9.          
    C0000012  R0000010   -24.       
    C0000013  OBJROW    31.            R0000001   -44.       
    C0000013  R0000002   -3.           R0000004  1.          
    C0000013  R0000005   -1.           R0000007  14.         
    C0000013  R0000009   -7.           R0000010   -32.       
    C0000013  R0000011   -26.          R0000014  37.         
    C0000014  OBJROW     -23.          R0000003   -23.       
    C0000014  R0000004  11.            R0000005   -47.       
    C0000014  R0000006  36.            R0000007   -22.       
    C0000014  R0000009   -15.          R0000010   -16.       
    C0000014  R0000012  48.            R0000014   -6.        
    C0000015  OBJROW    42.            R0000000   -21.       
    C0000015  R0000001  50.            R0000002  49.         
    C0000015  R0000004  15.            R0000005   -34.       
    C0000015  R0000006   -36.          R0000008  21.         
    C0000015  R0000009   -32.          R0000014  25.         
    C0000016  OBJROW    40.            R0000000   -12.       
    C0000016  R0000001  47.            R0000002  48.         
    C0000016  R0000004   -3.           R0000005  27.         
    C0000016  R0000008   -23.          R0000009  33.         
    C0000016  R0000010  43.            R0000011  18.         
    C0000016  R0000012  50.            R0000013  14.         
    C0000016  R0000014   -11.       
    C0000017  OBJROW     -45.          R0000001  35.         
    C0000017  R0000002   -16.          R0000004  29.         
    C0000017  R0000009   -16.          R0000010   -39.       
    C0000017  R0000012   -4.        
    C0000018  OBJROW     -45.          R0000001   -50.       
    C0000018  R0000002   -37.          R0000003  18.         
    C0000018  R0000004  4.             R0000005   -16.       
    C0000018  R0000007  15.            R0000009   -11.       
    C0000018  R0000010  43.            R0000013   -39.       
    C0000018  R0000014  3.          
    C0000019  OBJROW     -34.          R0000000  32.         
    C0000019  R0000001  29.            R0000002  34.         
    C0000019  R0000003   -10.          R0000005   -43.       
    C0000019  R0000007   -33.          R0000008   -15.       
    C0000019  R0000010   -41.          R0000011  16.         
    C0000019  R0000012  38.         
RHS
    RHS       R0000000  66.            R0000001  253.        
    RHS       R0000002  275.           R0000003  235.        
    RHS       R0000004   -39.          R0000005   -132.      
    RHS       R0000006  100.           R0000007   -235.      
    RHS       R0000009  263.           R0000010   -212.      
    RHS       R0000011  315.           R0000012   -163.      
    RHS       R0000013   -258.         R0000014  166.        
BOUNDS
 UI BOUND     C0000000  500.        
 UI BOUND     C0000001  500.        
 UI BOUND     C0000002  500.        
 UI BOUND     C0000003  500.        
 UI BOUND     C0000004  500.        
 UI BOUND     C0000005  500.        
 UI BOUND     C0000006  500.        
 UI BOUND     C0000007  500.        
 UI BOUND     C0000008  500.        
 UI BOUND     C0000009  500.        
 UI BOUND     C0000010  500.        
 UI BOUND     C0000011  500.        
 UI BOUND     C0000012  500.        
 UI BOUND     C0000013  500.        
 UI BOUND     C0000014  500.        
 UI BOUND     C0000015  500.        
 UI BOUND     C0000016  500.        
 UI BOUND     C0000017  500.        
 UI BOUND     C0000018  500.        
 UI BOUND     C0000019  500.        
ENDATA
