NAME          BLANK   
ROWS
 N  OBJROW
 L  R0000000
 L  R0000001
 L  R0000002
 L  R0000003
 L  R0000004
 L  R0000005
 L  R0000006
 L  R0000007
 L  R0000008
 L  R0000009
 L  R0000010
 L  R0000011
 L  R0000012
 L  R0000013
 L  R0000014
COLUMNS
    C0000000  OBJROW    46.            R0000000   -29.       
    C0000000  R0000002   -32.          R0000003  9.          
    C0000000  R0000004  11.            R0000006  27.         
    C0000000  R0000007   -33.          R0000008   -8.        
    C0000000  R0000009   -30.          R0000010  6.          
    C0000000  R0000012  36.            R0000013  44.         
    C0000000  R0000014  28.         
    C0000001  OBJROW    34.            R0000000   -42.       
    C0000001  R0000002  6.             R0000003  3.          
    C0000001  R0000004  8.             R0000006   -3.        
    C0000001  R0000007   -26.          R0000008  1.          
    C0000001  R0000009  27.            R0000011  34.         
    C0000001  R0000013  35.            R0000014  5.          
    C0000002  OBJROW    15.            R0000000  15.         
    C0000002  R0000001   -25.          R0000002  4.          
    C0000002  R0000003   -50.          R0000005  38.         
    C0000002  R0000006  21.            R0000007  2.          
    C0000002  R0000008   -39.          R0000009   -8.        
    C0000002  R0000010   -38.          R0000011   -15.       
    C0000002  R0000012   -44.          R0000013   -12.       
    C0000003  OBJROW     -49.          R0000000   -13.       
    C0000003  R0000001  48.            R0000002   -44.       
    C0000003  R0000003   -11.          R0000004   -9.        
    C0000003  R0000005   -13.          R0000006  3.          
    C0000003  R0000007  8.             R0000010  33.         
    C0000003  R0000011  34.            R0000012   -4.        
    C0000003  R0000013   -17.          R0000014   -42.       
    C0000004  OBJROW     -35.          R0000000  33.         
    C0000004  R0000003   -7.           R0000005   -10.       
    C0000004  R0000006   -27.          R0000007  13.         
    C0000004  R0000008   -34.          R0000009  43.         
    C0000004  R0000010   -17.          R0000011   -18.       
    C0000004  R0000012  50.            R0000013   -31.       
    C0000004  R0000014  37.         
    C0000005  OBJROW     -31.          R0000000  15.         
    C0000005  R0000001   -26.          R0000003  40.         
    C0000005  R0000004  6.             R0000005   -30.       
    C0000005  R0000006   -5.           R0000008   -13.       
    C0000005  R0000009  25.            R0000011  19.         
    C0000005  R0000012  40.            R0000013  32.         
    C0000005  R0000014  33.         
    C0000006  OBJROW    33.            R0000000  23.         
    C0000006  R0000003   -30.          R0000004   -45.       
    C0000006  R0000005   -7.           R0000006   -38.       
    C0000006  R0000007  3.             R0000008   -31.       
    C0000006  R0000009   -37.          R0000011   -2.        
    C0000006  R0000013   -47.       
    C0000007  OBJROW    37.            R0000000   -36.       
    C0000007  R0000001  15.            R0000002   -34.       
    C0000007  R0000003  14.            R0000004   -29.       
    C0000007  R0000007   -17.          R0000008  41.         
    C0000007  R0000009  11.            R0000010   -22.       
    C0000007  R0000011  20.            R0000012   -27.       
    C0000007  R0000013  33.            R0000014   -45.       
    C0000008  OBJROW    1.             R0000000   -28.       
    C0000008  R0000001  1.             R0000002   -2.        
    C0000008  R0000003   -27.          R0000004  7.          
    C0000008  R0000006   -27.          R0000007  19.         
    C0000008  R0000009   -35.          R0000010  50.         
    C0000008  R0000011   -37.          R0000013  12.         
    C0000008  R0000014   -10.       
    C0000009  OBJROW    3.             R0000000   -19.       
    C0000009  R0000003   -10.          R0000005  3.          
    C0000009  R0000006  42.            R0000007  44.         
    C0000009  R0000011  20.            R0000013   -6.        
    C0000009  R0000014   -5.        
    C0000010  OBJROW     -27.          R0000000  31.         
    C0000010  R0000002  29.            R0000004   -15.       
    C0000010  R0000005  20.            R0000006   -12.       
    C0000010  R0000007  20.            R0000009   -35.       
    C0000010  R0000011  43.            R0000013   -20.       
    C0000010  R0000014   -28.       
    C0000011  OBJROW     -19.          R0000000  47.         
    C0000011  R0000001  41.            R0000004   -25.       
    C0000011  R0000005  39.            R0000006  24.         
    C0000011  R0000008   -25.          R0000010   -38.       
    C0000011  R0000011  40.            R0000012  24.         
    C0000011  R0000013   -25.          R0000014  11.         
    C0000012  OBJROW     -10.          R0000000  48.         
    C0000012  R0000001  16.            R0000004  49.         
    C0000012  R0000005   -36.          R0000006  19.         
    C0000012  R0000007   -19.          R0000008   -19.       
    C0000012  R0000011  41.            R0000012   -20.       
    C0000012  R0000013   -28.          R0000014  27.         
    C0000013  OBJROW    6.             R0000001   -7.        
    C0000013  R0000003  29.            R0000004  37.         
    C0000013  R0000005  9.             R0000006  39.         
    C0000013  R0000007  17.            R0000008  39.         
    C0000013  R0000011  22.            R0000014  25.         
    C0000014  OBJROW     -5.           R0000000   -31.       
    C0000014  R0000003   -33.          R0000004  35.         
    C0000014  R0000006   -7.           R0000007  43.         
    C0000014  R0000008  34.            R0000009   -49.       
    C0000014  R0000011  34.            R0000012   -8.        
    C0000014  R0000013  31.            R0000014   -22.       
    C0000015  OBJROW     -4.           R0000000   -13.       
    C0000015  R0000002   -23.          R0000003  13.         
    C0000015  R0000005   -9.           R0000006  18.         
    C0000015  R0000007   -46.          R0000008   -33.       
    C0000015  R0000009  20.            R0000011   -6.        
    C0000015  R0000012   -24.          R0000013  16.         
    C0000016  OBJROW     -38.          R0000001   -35.       
    C0000016  R0000002  36.            R0000003  2.          
    C0000016  R0000004   -35.          R0000005   -6.        
    C0000016  R0000006   -12.          R0000007  38.         
    C0000016  R0000011  8.             R0000012   -35.       
    C0000016  R0000013  32.            R0000014   -32.       
    C0000017  OBJROW     -20.          R0000000   -41.       
    C0000017  R0000002  35.            R0000004   -38.       
    C0000017  R0000006  34.            R0000007  3.          
    C0000017  R0000008  18.            R0000010   -28.       
    C0000017  R0000011   -14.          R0000012  45.         
    C0000017  R0000013  8.             R0000014   -50.       
    C0000018  OBJROW     -19.          R0000000   -37.       
    C0000018  R0000002   -24.          R0000003  1.          
    C0000018  R0000004  24.            R0000005   -42.       
    C0000018  R0000006  18.            R0000007  35.         
    C0000018  R0000008  20.            R0000011   -42.       
    C0000018  R0000012  47.            R0000013   -44.       
    C0000018  R0000014  24.         
    C0000019  OBJROW     -6.           R0000000   -17.       
    C0000019  R0000002  40.            R0000005   -26.       
    C0000019  R0000007   -35.          R0000009  10.         
    C0000019  R0000011  46.            R0000012   -14.       
    C0000019  R0000013   -19.          R0000014   -42.       
    C0000020  OBJROW     -7.           R0000000   -48.       
    C0000020  R0000002   -31.          R0000003  29.         
    C0000020  R0000004  27.            R0000005   -37.       
    C0000020  R0000006   -50.          R0000007  3.          
    C0000020  R0000009   -14.          R0000010  42.         
    C0000020  R0000011  24.            R0000012  14.         
    C0000020  R0000013  42.            R0000014   -37.       
    C0000021  OBJROW     -6.           R0000000  45.         
    C0000021  R0000001   -11.          R0000002  17.         
    C0000021  R0000003  21.            R0000004   -8.        
    C0000021  R0000005   -21.          R0000006  43.         
    C0000021  R0000007  19.            R0000009   -29.       
    C0000021  R0000011  32.            R0000012  41.         
    C0000021  R0000013  3.          
    C0000022  OBJROW     -2.           R0000000   -9.        
    C0000022  R0000001  35.            R0000002  15.         
    C0000022  R0000003   -43.          R0000004   -12.       
    C0000022  R0000005  33.            R0000006   -18.       
    C0000022  R0000007   -6.           R0000008  43.         
    C0000022  R0000009   -33.          R0000011  7.          
    C0000022  R0000012   -13.          R0000013   -47.       
    C0000023  OBJROW    7.             R0000000  21.         
    C0000023  R0000001   -10.          R0000002   -14.       
    C0000023  R0000004   -46.          R0000006  44.         
    C0000023  R0000007  38.            R0000008   -29.       
    C0000023  R0000009  10.            R0000010   -16.       
    C0000023  R0000011   -15.          R0000012  30.         
    C0000023  R0000013   -21.       
    C0000024  OBJROW    22.            R0000000  25.         
    C0000024  R0000004  18.            R0000005  43.         
    C0000024  R0000006   -13.          R0000007  45.         
    C0000024  R0000008   -22.          R0000009   -32.       
    C0000024  R0000010  31.            R0000011  1.          
    C0000024  R0000012  33.            R0000013  27.         
RHS
    RHS       R0000000   -292.         R0000001  295.        
    RHS       R0000002  136.           R0000003   -174.      
    RHS       R0000004   -87.          R0000005  10.         
    RHS       R0000006   -12.          R0000007  96.         
    RHS       R0000008  166.           R0000009   -209.      
    RHS       R0000010   -203.         R0000011  981.        
    RHS       R0000012   -22.          R0000013   -59.       
    RHS       R0000014   -563.      
BOUNDS
 UI BOUND     C0000000  500.        
 UI BOUND     C0000001  500.        
 UI BOUND     C0000002  500.        
 UI BOUND     C0000003  500.        
 UI BOUND     C0000004  500.        
 UI BOUND     C0000005  500.        
 UI BOUND     C0000006  500.        
 UI BOUND     C0000007  500.        
 UI BOUND     C0000008  500.        
 UI BOUND     C0000009  500.        
 UI BOUND     C0000010  500.        
 UI BOUND     C0000011  500.        
 UI BOUND     C0000012  500.        
 UI BOUND     C0000013  500.        
 UI BOUND     C0000014  500.        
 UI BOUND     C0000015  500.        
 UI BOUND     C0000016  500.        
 UI BOUND     C0000017  500.        
 UI BOUND     C0000018  500.        
 UI BOUND     C0000019  500.        
 UI BOUND     C0000020  500.        
 UI BOUND     C0000021  500.        
 UI BOUND     C0000022  500.        
 UI BOUND     C0000023  500.        
 UI BOUND     C0000024  500.        
ENDATA
