NAME          BLANK   
ROWS
 N  OBJROW
 L  R0000000
 L  R0000001
 L  R0000002
 L  R0000003
 L  R0000004
 L  R0000005
 L  R0000006
 L  R0000007
 L  R0000008
 L  R0000009
COLUMNS
    C0000000  OBJROW     -4.           R0000000   -16.       
    C0000000  R0000001   -38.          R0000002  40.         
    C0000000  R0000003   -48.          R0000005   -16.       
    C0000000  R0000006  8.             R0000007  9.          
    C0000000  R0000009  47.         
    C0000001  OBJROW    17.            R0000003  30.         
    C0000001  R0000005   -21.          R0000006  47.         
    C0000001  R0000007  26.            R0000008  40.         
    C0000002  OBJROW     -27.          R0000003   -41.       
    C0000002  R0000004   -30.          R0000005  10.         
    C0000002  R0000006   -44.          R0000007  43.         
    C0000003  OBJROW     -48.          R0000003   -5.        
    C0000003  R0000004   -38.          R0000005   -16.       
    C0000003  R0000006  13.            R0000007  48.         
    C0000003  R0000008   -18.          R0000009   -27.       
    C0000004  OBJROW    44.            R0000000   -31.       
    C0000004  R0000003  47.            R0000004  22.         
    C0000004  R0000005   -12.          R0000006  44.         
    C0000004  R0000007   -49.          R0000008  26.         
    C0000004  R0000009  34.         
    C0000005  OBJROW     -41.          R0000000  9.          
    C0000005  R0000001   -7.           R0000003  27.         
    C0000005  R0000004   -5.           R0000005  25.         
    C0000005  R0000006  28.            R0000007  4.          
    C0000005  R0000008   -4.        
    C0000006  OBJROW    1.             R0000001   -9.        
    C0000006  R0000003   -5.           R0000004   -20.       
    C0000006  R0000005   -39.          R0000006   -1.        
    C0000006  R0000007   -39.          R0000008   -25.       
    C0000006  R0000009  24.         
    C0000007  OBJROW    45.            R0000000   -7.        
    C0000007  R0000001   -15.          R0000002  16.         
    C0000007  R0000003  2.             R0000004  25.         
    C0000007  R0000005   -36.          R0000006   -21.       
    C0000007  R0000007  9.             R0000008  34.         
    C0000008  OBJROW     -48.          R0000000  24.         
    C0000008  R0000002  3.             R0000003   -4.        
    C0000008  R0000004   -29.          R0000005  24.         
    C0000008  R0000006   -3.        
    C0000009  OBJROW    31.            R0000000  48.         
    C0000009  R0000001   -6.           R0000002   -34.       
    C0000009  R0000003   -32.          R0000004  6.          
    C0000009  R0000006  36.            R0000008  6.          
    C0000009  R0000009  41.         
    C0000010  OBJROW     -30.          R0000000  46.         
    C0000010  R0000002  6.             R0000003   -12.       
    C0000010  R0000004  47.            R0000005  32.         
    C0000010  R0000006  30.            R0000007  17.         
    C0000010  R0000008  6.          
    C0000011  OBJROW    40.            R0000001  19.         
    C0000011  R0000002  36.            R0000003   -33.       
    C0000011  R0000004  32.            R0000005  5.          
    C0000011  R0000006  31.            R0000007   -44.       
    C0000011  R0000008  48.            R0000009  6.          
    C0000012  OBJROW     -14.          R0000000  24.         
    C0000012  R0000001   -43.          R0000002  14.         
    C0000012  R0000004  28.            R0000005   -30.       
    C0000012  R0000006   -1.           R0000007  18.         
    C0000012  R0000008   -28.       
    C0000013  OBJROW    17.            R0000000   -25.       
    C0000013  R0000001   -30.          R0000003   -22.       
    C0000013  R0000004  17.            R0000005  20.         
    C0000013  R0000006   -17.          R0000007  34.         
    C0000013  R0000009   -5.        
    C0000014  OBJROW     -13.          R0000002   -46.       
    C0000014  R0000004   -39.          R0000005   -3.        
    C0000014  R0000006  38.            R0000007  4.          
    C0000015  OBJROW     -47.          R0000000   -43.       
    C0000015  R0000003  36.            R0000004   -33.       
    C0000015  R0000006   -6.           R0000007   -22.       
    C0000015  R0000008  45.         
    C0000016  OBJROW     -26.          R0000000   -50.       
    C0000016  R0000003   -34.          R0000004  7.          
    C0000016  R0000005   -24.          R0000006  23.         
    C0000016  R0000007   -46.       
    C0000017  OBJROW     -31.          R0000000  19.         
    C0000017  R0000003  7.             R0000004  10.         
    C0000017  R0000005   -44.          R0000006  1.          
    C0000017  R0000007  9.          
    C0000018  OBJROW    48.            R0000000   -14.       
    C0000018  R0000001  35.            R0000002   -31.       
    C0000018  R0000003   -20.          R0000004  44.         
    C0000018  R0000005  18.            R0000006  48.         
    C0000018  R0000007  37.            R0000009  31.         
    C0000019  OBJROW     -49.          R0000000   -38.       
    C0000019  R0000003   -6.           R0000004  46.         
    C0000019  R0000006  4.             R0000009  33.         
    C0000020  OBJROW     -39.          R0000001  5.          
    C0000020  R0000003   -8.           R0000005  27.         
    C0000020  R0000006   -49.          R0000007   -17.       
    C0000020  R0000008   -11.       
    C0000021  OBJROW    40.            R0000000   -26.       
    C0000021  R0000001   -25.          R0000002   -40.       
    C0000021  R0000003  47.            R0000004   -41.       
    C0000021  R0000005   -45.          R0000006   -34.       
    C0000021  R0000007  33.            R0000009   -44.       
    C0000022  OBJROW    37.            R0000000   -36.       
    C0000022  R0000001  45.            R0000002  47.         
    C0000022  R0000004   -28.          R0000006   -10.       
    C0000022  R0000007  25.            R0000008   -44.       
    C0000023  OBJROW    16.            R0000001  20.         
    C0000023  R0000003  23.            R0000004   -6.        
    C0000023  R0000005   -14.          R0000006   -37.       
    C0000023  R0000007  46.            R0000009   -35.       
    C0000024  OBJROW     -26.          R0000000  24.         
    C0000024  R0000003  44.            R0000004   -37.       
    C0000024  R0000006   -49.          R0000007  29.         
    C0000024  R0000008  17.            R0000009  40.         
RHS
    RHS       R0000000  191.           R0000001   -121.      
    RHS       R0000002   -201.         R0000003   -115.      
    RHS       R0000004  57.            R0000005  147.        
    RHS       R0000006   -208.         R0000007  337.        
    RHS       R0000008  78.            R0000009  586.        
BOUNDS
 UI BOUND     C0000000  500.        
 UI BOUND     C0000001  500.        
 UI BOUND     C0000002  500.        
 UI BOUND     C0000003  500.        
 UI BOUND     C0000004  500.        
 UI BOUND     C0000005  500.        
 UI BOUND     C0000006  500.        
 UI BOUND     C0000007  500.        
 UI BOUND     C0000008  500.        
 UI BOUND     C0000009  500.        
 UI BOUND     C0000010  500.        
 UI BOUND     C0000011  500.        
 UI BOUND     C0000012  500.        
 UI BOUND     C0000013  500.        
 UI BOUND     C0000014  500.        
 UI BOUND     C0000015  500.        
 UI BOUND     C0000016  500.        
 UI BOUND     C0000017  500.        
 UI BOUND     C0000018  500.        
 UI BOUND     C0000019  500.        
 UI BOUND     C0000020  500.        
 UI BOUND     C0000021  500.        
 UI BOUND     C0000022  500.        
 UI BOUND     C0000023  500.        
 UI BOUND     C0000024  500.        
ENDATA
