NAME          BLANK   
ROWS
 N  OBJROW
 L  R0000000
 L  R0000001
 L  R0000002
 L  R0000003
 L  R0000004
COLUMNS
    C0000000  OBJROW     -14.          R0000002   -34.       
    C0000000  R0000003  16.            R0000004  45.         
    C0000001  OBJROW    7.             R0000001  18.         
    C0000001  R0000004  23.         
    C0000002  OBJROW    36.            R0000003  37.         
    C0000003  OBJROW    44.            R0000000   -15.       
    C0000003  R0000001  7.             R0000002   -47.       
    C0000003  R0000004  36.         
    C0000004  OBJROW     -46.          R0000001   -19.       
    C0000004  R0000004   -14.       
    C0000005  OBJROW    21.            R0000001  20.         
    C0000005  R0000002  12.            R0000004  49.         
    C0000006  OBJROW     -37.          R0000002  44.         
    C0000006  R0000004   -29.       
    C0000007  OBJROW     -27.          R0000001   -6.        
    C0000007  R0000002   -3.           R0000003  26.         
    C0000007  R0000004   -28.       
    C0000008  OBJROW    29.            R0000000  8.          
    C0000008  R0000001  1.             R0000002   -5.        
    C0000008  R0000003   -11.          R0000004  18.         
    C0000009  OBJROW    26.            R0000000  34.         
    C0000009  R0000001   -17.          R0000003  31.         
    C0000009  R0000004   -7.        
RHS
    RHS       R0000000  43.            R0000001  1.          
    RHS       R0000002  176.           R0000003  87.         
    RHS       R0000004   -25.       
BOUNDS
 UI BOUND     C0000000  500.        
 UI BOUND     C0000001  500.        
 UI BOUND     C0000002  500.        
 UI BOUND     C0000003  500.        
 UI BOUND     C0000004  500.        
 UI BOUND     C0000005  500.        
 UI BOUND     C0000006  500.        
 UI BOUND     C0000007  500.        
 UI BOUND     C0000008  500.        
 UI BOUND     C0000009  500.        
ENDATA
