NAME          BLANK   
ROWS
 N  OBJROW
 L  R0000000
 L  R0000001
 L  R0000002
 L  R0000003
 L  R0000004
COLUMNS
    C0000000  OBJROW     -21.          R0000000  33.         
    C0000001  OBJROW    17.            R0000000   -43.       
    C0000001  R0000003   -47.          R0000004  44.         
    C0000002  OBJROW    26.            R0000002   -37.       
    C0000002  R0000003  43.         
    C0000003  OBJROW    44.            R0000000   -36.       
    C0000003  R0000003  24.            R0000004  2.          
    C0000004  OBJROW    29.            R0000000   -13.       
    C0000004  R0000001  49.            R0000004   -13.       
    C0000005  OBJROW     -4.           R0000000   -44.       
    C0000005  R0000001  12.            R0000003  24.         
    C0000006  OBJROW    11.            R0000001  7.          
    C0000006  R0000002   -29.          R0000003  23.         
    C0000007  OBJROW     -5.           R0000003   -22.       
    C0000007  R0000004  2.          
    C0000008  OBJROW     -44.          R0000000  32.         
    C0000009  OBJROW     -11.          R0000004  7.          
RHS
    RHS       R0000000   -330.         R0000001  169.        
    RHS       R0000002   -145.         R0000003   -111.      
    RHS       R0000004  181.        
BOUNDS
 UI BOUND     C0000000  500.        
 UI BOUND     C0000001  500.        
 UI BOUND     C0000002  500.        
 UI BOUND     C0000003  500.        
 UI BOUND     C0000004  500.        
 UI BOUND     C0000005  500.        
 UI BOUND     C0000006  500.        
 UI BOUND     C0000007  500.        
 UI BOUND     C0000008  500.        
 UI BOUND     C0000009  500.        
ENDATA
