NAME          BLANK   
ROWS
 N  OBJROW
 L  R0000000
 L  R0000001
 L  R0000002
 L  R0000003
 L  R0000004
 L  R0000005
 L  R0000006
 L  R0000007
 L  R0000008
 L  R0000009
 L  R0000010
 L  R0000011
 L  R0000012
 L  R0000013
 L  R0000014
COLUMNS
    C0000000  OBJROW    41.            R0000002  40.         
    C0000000  R0000003   -10.          R0000004   -34.       
    C0000000  R0000005   -12.          R0000007  49.         
    C0000000  R0000008  32.            R0000009   -46.       
    C0000000  R0000010   -21.          R0000011  26.         
    C0000000  R0000013   -43.          R0000014   -21.       
    C0000001  OBJROW     -48.          R0000000  30.         
    C0000001  R0000001   -25.          R0000002  15.         
    C0000001  R0000006   -46.          R0000007  13.         
    C0000001  R0000009   -28.          R0000010   -12.       
    C0000001  R0000011   -8.           R0000012  31.         
    C0000001  R0000013  45.            R0000014   -28.       
    C0000002  OBJROW    10.            R0000000   -46.       
    C0000002  R0000003   -31.          R0000005  38.         
    C0000002  R0000006  20.            R0000007  35.         
    C0000002  R0000009   -11.          R0000010   -38.       
    C0000002  R0000011  15.            R0000012  41.         
    C0000002  R0000013   -40.          R0000014   -44.       
    C0000003  OBJROW     -4.           R0000000   -14.       
    C0000003  R0000003   -3.           R0000004   -43.       
    C0000003  R0000006  33.            R0000009  18.         
    C0000003  R0000010   -9.           R0000011   -35.       
    C0000003  R0000012  23.            R0000013   -13.       
    C0000004  OBJROW     -8.           R0000000  23.         
    C0000004  R0000001  30.            R0000004  14.         
    C0000004  R0000005  40.            R0000007  38.         
    C0000004  R0000008   -18.          R0000009  37.         
    C0000004  R0000010   -42.          R0000011   -24.       
    C0000004  R0000012  35.            R0000013  38.         
    C0000004  R0000014  34.         
    C0000005  OBJROW     -19.          R0000000  23.         
    C0000005  R0000001   -47.          R0000004   -12.       
    C0000005  R0000005  20.            R0000006  29.         
    C0000005  R0000008   -32.          R0000009   -29.       
    C0000005  R0000010  32.            R0000012  27.         
    C0000005  R0000013  17.         
    C0000006  OBJROW     -19.          R0000000   -33.       
    C0000006  R0000001  32.            R0000003   -29.       
    C0000006  R0000004   -39.          R0000006  36.         
    C0000006  R0000007   -22.          R0000008  26.         
    C0000006  R0000009  4.             R0000010  18.         
    C0000006  R0000013   -46.          R0000014  36.         
    C0000007  OBJROW     -40.          R0000000   -30.       
    C0000007  R0000002  26.            R0000003   -4.        
    C0000007  R0000004  5.             R0000005  29.         
    C0000007  R0000006  5.             R0000007  44.         
    C0000007  R0000008   -37.          R0000009  24.         
    C0000007  R0000010   -24.          R0000012   -19.       
    C0000007  R0000013  26.            R0000014   -40.       
    C0000008  OBJROW     -21.          R0000000   -50.       
    C0000008  R0000004   -11.          R0000008  26.         
    C0000008  R0000009  21.            R0000010  7.          
    C0000008  R0000011   -27.          R0000012  49.         
    C0000008  R0000013   -8.        
    C0000009  OBJROW    10.            R0000000   -39.       
    C0000009  R0000002   -44.          R0000003  7.          
    C0000009  R0000005  47.            R0000006   -20.       
    C0000009  R0000007   -32.          R0000008  43.         
    C0000009  R0000009  24.            R0000010   -33.       
    C0000009  R0000011  13.            R0000013   -46.       
    C0000010  OBJROW    18.            R0000000  32.         
    C0000010  R0000002  48.            R0000006   -47.       
    C0000010  R0000007   -31.          R0000008  30.         
    C0000010  R0000009  12.            R0000010  8.          
    C0000010  R0000012  11.            R0000013   -14.       
    C0000011  OBJROW    8.             R0000000  37.         
    C0000011  R0000001  13.            R0000003   -5.        
    C0000011  R0000004   -31.          R0000007   -46.       
    C0000011  R0000009   -21.          R0000010   -31.       
    C0000011  R0000013   -14.       
    C0000012  OBJROW    23.            R0000001   -22.       
    C0000012  R0000003  46.            R0000004   -17.       
    C0000012  R0000005   -26.          R0000007   -22.       
    C0000012  R0000011   -42.          R0000012   -26.       
    C0000012  R0000013  48.         
    C0000013  OBJROW     -18.          R0000000   -35.       
    C0000013  R0000001  28.            R0000004   -48.       
    C0000013  R0000006  50.            R0000007  30.         
    C0000013  R0000008   -14.          R0000009  10.         
    C0000013  R0000010  23.            R0000012  21.         
    C0000013  R0000013   -27.          R0000014   -7.        
    C0000014  OBJROW    46.            R0000000   -26.       
    C0000014  R0000001  43.            R0000002   -44.       
    C0000014  R0000004   -14.          R0000007  32.         
    C0000014  R0000010  30.            R0000011   -39.       
    C0000014  R0000012   -22.          R0000013  49.         
    C0000015  OBJROW    49.            R0000000   -22.       
    C0000015  R0000001   -25.          R0000003  23.         
    C0000015  R0000005  23.            R0000006   -47.       
    C0000015  R0000007  47.            R0000009  46.         
    C0000015  R0000010   -24.          R0000012  27.         
    C0000015  R0000013  49.         
    C0000016  OBJROW    22.            R0000000  9.          
    C0000016  R0000003  29.            R0000004   -11.       
    C0000016  R0000005   -20.          R0000007   -50.       
    C0000016  R0000008   -37.          R0000009   -43.       
    C0000016  R0000010   -44.          R0000011  43.         
    C0000016  R0000012   -16.          R0000013   -25.       
    C0000017  OBJROW    41.            R0000000  36.         
    C0000017  R0000001   -49.          R0000005  43.         
    C0000017  R0000006  27.            R0000007  45.         
    C0000017  R0000008  10.            R0000009  13.         
    C0000017  R0000012  2.             R0000013   -8.        
    C0000017  R0000014   -41.       
    C0000018  OBJROW     -10.          R0000003   -9.        
    C0000018  R0000006  32.            R0000007   -11.       
    C0000018  R0000010  42.            R0000012   -49.       
    C0000018  R0000013   -31.          R0000014   -43.       
    C0000019  OBJROW     -28.          R0000000  9.          
    C0000019  R0000002  44.            R0000005   -30.       
    C0000019  R0000007  7.             R0000008   -21.       
    C0000019  R0000009   -31.          R0000010   -30.       
    C0000019  R0000011   -45.          R0000012  42.         
    C0000019  R0000013  3.          
    C0000020  OBJROW    38.            R0000000  11.         
    C0000020  R0000002   -5.           R0000004  8.          
    C0000020  R0000006   -45.          R0000007   -47.       
    C0000020  R0000008  32.            R0000010  47.         
    C0000020  R0000012   -38.          R0000013  42.         
    C0000020  R0000014   -24.       
    C0000021  OBJROW    3.             R0000000  45.         
    C0000021  R0000003   -22.          R0000004   -27.       
    C0000021  R0000005   -8.           R0000007   -15.       
    C0000021  R0000009  9.             R0000010  49.         
    C0000021  R0000012   -28.          R0000013  1.          
    C0000022  OBJROW    38.            R0000000   -42.       
    C0000022  R0000001   -18.          R0000002  46.         
    C0000022  R0000003  25.            R0000004  49.         
    C0000022  R0000005  23.            R0000007   -37.       
    C0000022  R0000012   -24.          R0000013  32.         
    C0000023  OBJROW     -10.          R0000000   -15.       
    C0000023  R0000001  22.            R0000004   -46.       
    C0000023  R0000005  13.            R0000007   -23.       
    C0000023  R0000008   -6.           R0000009  21.         
    C0000023  R0000012   -37.          R0000013   -18.       
    C0000023  R0000014  38.         
    C0000024  OBJROW    14.            R0000000   -19.       
    C0000024  R0000001  2.             R0000003  37.         
    C0000024  R0000004  16.            R0000006  34.         
    C0000024  R0000008  10.            R0000009   -35.       
    C0000024  R0000010  2.             R0000012   -47.       
    C0000024  R0000013   -19.          R0000014   -9.        
    C0000025  OBJROW    43.            R0000000   -39.       
    C0000025  R0000001  43.            R0000003   -46.       
    C0000025  R0000004  26.            R0000007   -32.       
    C0000025  R0000008  38.            R0000009  4.          
    C0000025  R0000010  33.            R0000013  44.         
    C0000025  R0000014   -6.        
    C0000026  OBJROW    44.            R0000000   -24.       
    C0000026  R0000001   -30.          R0000002  17.         
    C0000026  R0000003   -17.          R0000005  17.         
    C0000026  R0000007  32.            R0000008   -2.        
    C0000026  R0000009   -49.          R0000010   -42.       
    C0000026  R0000011  29.            R0000012   -37.       
    C0000026  R0000013  43.            R0000014   -35.       
    C0000027  OBJROW    28.            R0000000  1.          
    C0000027  R0000001   -35.          R0000003  2.          
    C0000027  R0000005   -37.          R0000006  39.         
    C0000027  R0000007   -12.          R0000008  42.         
    C0000027  R0000009   -26.          R0000010  7.          
    C0000027  R0000013   -22.       
    C0000028  OBJROW     -28.          R0000000  26.         
    C0000028  R0000005  15.            R0000006   -5.        
    C0000028  R0000007  50.            R0000008  44.         
    C0000028  R0000009  30.            R0000010   -4.        
    C0000028  R0000011  41.            R0000012   -19.       
    C0000028  R0000013  38.            R0000014   -19.       
    C0000029  OBJROW    40.            R0000001   -14.       
    C0000029  R0000002   -7.           R0000005   -47.       
    C0000029  R0000007   -33.          R0000009   -38.       
    C0000029  R0000010  9.             R0000011   -21.       
    C0000029  R0000014  44.         
RHS
    RHS       R0000000   -480.         R0000001  33.         
    RHS       R0000002   -61.          R0000003   -155.      
    RHS       R0000004   -812.         R0000005  239.        
    RHS       R0000006  722.           R0000007  280.        
    RHS       R0000008  29.            R0000009  235.        
    RHS       R0000010  487.           R0000011   -380.      
    RHS       R0000012  141.           R0000013   -44.       
    RHS       R0000014   -327.      
BOUNDS
 UI BOUND     C0000000  500.        
 UI BOUND     C0000001  500.        
 UI BOUND     C0000002  500.        
 UI BOUND     C0000003  500.        
 UI BOUND     C0000004  500.        
 UI BOUND     C0000005  500.        
 UI BOUND     C0000006  500.        
 UI BOUND     C0000007  500.        
 UI BOUND     C0000008  500.        
 UI BOUND     C0000009  500.        
 UI BOUND     C0000010  500.        
 UI BOUND     C0000011  500.        
 UI BOUND     C0000012  500.        
 UI BOUND     C0000013  500.        
 UI BOUND     C0000014  500.        
 UI BOUND     C0000015  500.        
 UI BOUND     C0000016  500.        
 UI BOUND     C0000017  500.        
 UI BOUND     C0000018  500.        
 UI BOUND     C0000019  500.        
 UI BOUND     C0000020  500.        
 UI BOUND     C0000021  500.        
 UI BOUND     C0000022  500.        
 UI BOUND     C0000023  500.        
 UI BOUND     C0000024  500.        
 UI BOUND     C0000025  500.        
 UI BOUND     C0000026  500.        
 UI BOUND     C0000027  500.        
 UI BOUND     C0000028  500.        
 UI BOUND     C0000029  500.        
ENDATA
