NAME          BLANK   
ROWS
 N  OBJROW
 L  R0000000
 L  R0000001
 L  R0000002
 L  R0000003
 L  R0000004
 L  R0000005
 L  R0000006
 L  R0000007
 L  R0000008
 L  R0000009
COLUMNS
    C0000000  OBJROW     -36.          R0000000  33.         
    C0000000  R0000001   -41.          R0000002   -4.        
    C0000000  R0000003  15.            R0000004   -2.        
    C0000000  R0000005   -15.          R0000007   -18.       
    C0000000  R0000008   -18.          R0000009  35.         
    C0000001  OBJROW    42.            R0000000   -44.       
    C0000001  R0000001  45.            R0000002   -17.       
    C0000001  R0000004   -15.          R0000005   -41.       
    C0000001  R0000007  14.            R0000008  8.          
    C0000001  R0000009   -24.       
    C0000002  OBJROW    8.             R0000000  23.         
    C0000002  R0000001  39.            R0000002   -31.       
    C0000002  R0000003   -10.          R0000005  24.         
    C0000002  R0000006   -14.          R0000007   -21.       
    C0000002  R0000008  19.            R0000009   -5.        
    C0000003  OBJROW     -32.          R0000001  18.         
    C0000003  R0000002  43.            R0000003  8.          
    C0000003  R0000004   -13.          R0000005  17.         
    C0000003  R0000006   -43.          R0000007  9.          
    C0000003  R0000009  33.         
    C0000004  OBJROW     -33.          R0000000  44.         
    C0000004  R0000001   -15.          R0000002   -4.        
    C0000004  R0000005   -8.           R0000006  32.         
    C0000004  R0000007   -48.          R0000008   -49.       
    C0000004  R0000009  38.         
    C0000005  OBJROW    12.            R0000000  28.         
    C0000005  R0000001  49.            R0000003   -18.       
    C0000005  R0000004  13.            R0000005   -44.       
    C0000005  R0000007   -1.           R0000008  23.         
    C0000005  R0000009  43.         
    C0000006  OBJROW    46.            R0000000   -11.       
    C0000006  R0000001  28.            R0000002   -13.       
    C0000006  R0000003   -24.          R0000004   -40.       
    C0000006  R0000005  8.             R0000007   -33.       
    C0000006  R0000008  24.            R0000009   -32.       
    C0000007  OBJROW     -43.          R0000000  31.         
    C0000007  R0000001  37.            R0000002   -34.       
    C0000007  R0000003   -27.          R0000004  23.         
    C0000007  R0000005   -5.           R0000007  40.         
    C0000007  R0000009   -45.       
    C0000008  OBJROW    24.            R0000000   -28.       
    C0000008  R0000001  49.            R0000002  1.          
    C0000008  R0000004   -48.          R0000005  9.          
    C0000008  R0000007   -31.          R0000008  10.         
    C0000008  R0000009   -20.       
    C0000009  OBJROW    25.            R0000000   -33.       
    C0000009  R0000001   -18.          R0000002  14.         
    C0000009  R0000005   -14.          R0000006   -15.       
    C0000009  R0000007   -10.          R0000008  1.          
    C0000009  R0000009   -41.       
    C0000010  OBJROW     -37.          R0000002  7.          
    C0000010  R0000003  45.            R0000005  29.         
    C0000010  R0000006   -36.          R0000007  49.         
    C0000010  R0000008   -2.           R0000009  1.          
    C0000011  OBJROW     -41.          R0000000   -47.       
    C0000011  R0000001  21.            R0000002  7.          
    C0000011  R0000005   -36.          R0000007   -38.       
    C0000011  R0000009  34.         
    C0000012  OBJROW    45.            R0000000   -35.       
    C0000012  R0000001   -32.          R0000002   -43.       
    C0000012  R0000004  2.             R0000005   -2.        
    C0000012  R0000006  37.            R0000007  44.         
    C0000012  R0000009   -4.        
    C0000013  OBJROW    44.            R0000001   -14.       
    C0000013  R0000002  31.            R0000003   -23.       
    C0000013  R0000004  28.            R0000005  26.         
    C0000013  R0000006   -14.          R0000007   -16.       
    C0000013  R0000008   -30.          R0000009   -5.        
    C0000014  OBJROW     -20.          R0000001   -41.       
    C0000014  R0000003  1.             R0000004   -16.       
    C0000014  R0000005   -9.           R0000006   -18.       
    C0000014  R0000007   -45.       
    C0000015  OBJROW     -27.          R0000001   -17.       
    C0000015  R0000002  24.            R0000003   -42.       
    C0000015  R0000004  24.            R0000005  2.          
    C0000015  R0000006   -46.          R0000007  7.          
    C0000015  R0000009   -4.        
    C0000016  OBJROW     -21.          R0000000  31.         
    C0000016  R0000001   -30.          R0000002  8.          
    C0000016  R0000003  37.            R0000005  50.         
    C0000016  R0000006  19.            R0000009   -45.       
    C0000017  OBJROW    6.             R0000000  7.          
    C0000017  R0000001   -12.          R0000002   -4.        
    C0000017  R0000003   -4.           R0000005   -8.        
    C0000017  R0000006   -41.          R0000007   -30.       
    C0000017  R0000008   -5.           R0000009  28.         
    C0000018  OBJROW     -22.          R0000000  38.         
    C0000018  R0000001  38.            R0000003  47.         
    C0000018  R0000004  27.            R0000005   -45.       
    C0000018  R0000006  13.            R0000007   -14.       
    C0000018  R0000008   -8.           R0000009   -8.        
    C0000019  OBJROW     -22.          R0000000   -26.       
    C0000019  R0000001  41.            R0000005   -27.       
    C0000019  R0000006   -3.           R0000007  18.         
    C0000019  R0000008   -33.       
    C0000020  OBJROW    37.            R0000000  8.          
    C0000020  R0000001  28.            R0000002   -15.       
    C0000020  R0000003   -44.          R0000004  10.         
    C0000020  R0000005   -5.           R0000006   -46.       
    C0000020  R0000007   -32.          R0000008   -35.       
    C0000020  R0000009   -5.        
    C0000021  OBJROW     -34.          R0000001  32.         
    C0000021  R0000002  15.            R0000003  30.         
    C0000021  R0000004  44.            R0000005  1.          
    C0000021  R0000007   -28.          R0000008   -48.       
    C0000021  R0000009  41.         
    C0000022  OBJROW     -28.          R0000000  6.          
    C0000022  R0000002  43.            R0000005  26.         
    C0000022  R0000007  17.            R0000008   -47.       
    C0000022  R0000009   -28.       
    C0000023  OBJROW    32.            R0000000   -48.       
    C0000023  R0000001  19.            R0000002   -30.       
    C0000023  R0000003  38.            R0000004   -1.        
    C0000023  R0000005   -9.           R0000006  37.         
    C0000023  R0000007  42.            R0000008   -37.       
    C0000023  R0000009  35.         
    C0000024  OBJROW     -13.          R0000000  37.         
    C0000024  R0000002  13.            R0000005   -2.        
    C0000024  R0000007  11.            R0000009   -17.       
RHS
    RHS       R0000000  569.           R0000001  209.        
    RHS       R0000002  24.            R0000003  121.        
    RHS       R0000004  166.           R0000005   -301.      
    RHS       R0000006   -267.         R0000007   -6.        
    RHS       R0000008   -214.         R0000009   -302.      
BOUNDS
 UI BOUND     C0000000  500.        
 UI BOUND     C0000001  500.        
 UI BOUND     C0000002  500.        
 UI BOUND     C0000003  500.        
 UI BOUND     C0000004  500.        
 UI BOUND     C0000005  500.        
 UI BOUND     C0000006  500.        
 UI BOUND     C0000007  500.        
 UI BOUND     C0000008  500.        
 UI BOUND     C0000009  500.        
 UI BOUND     C0000010  500.        
 UI BOUND     C0000011  500.        
 UI BOUND     C0000012  500.        
 UI BOUND     C0000013  500.        
 UI BOUND     C0000014  500.        
 UI BOUND     C0000015  500.        
 UI BOUND     C0000016  500.        
 UI BOUND     C0000017  500.        
 UI BOUND     C0000018  500.        
 UI BOUND     C0000019  500.        
 UI BOUND     C0000020  500.        
 UI BOUND     C0000021  500.        
 UI BOUND     C0000022  500.        
 UI BOUND     C0000023  500.        
 UI BOUND     C0000024  500.        
ENDATA
