NAME          BLANK   
ROWS
 N  OBJROW
 L  R0000000
 L  R0000001
 L  R0000002
 L  R0000003
 L  R0000004
 L  R0000005
 L  R0000006
 L  R0000007
 L  R0000008
 L  R0000009
COLUMNS
    C0000000  OBJROW     -8.           R0000002   -38.       
    C0000000  R0000003  28.            R0000006   -23.       
    C0000000  R0000007   -19.          R0000008  26.         
    C0000000  R0000009  20.         
    C0000001  OBJROW     -42.          R0000001   -15.       
    C0000001  R0000002  3.             R0000003  43.         
    C0000001  R0000004   -26.          R0000006  5.          
    C0000001  R0000007  13.            R0000009   -29.       
    C0000002  OBJROW     -7.           R0000000   -34.       
    C0000002  R0000001  2.             R0000002   -25.       
    C0000002  R0000003  30.            R0000004  5.          
    C0000002  R0000005  49.            R0000006  7.          
    C0000002  R0000007   -7.           R0000008   -21.       
    C0000002  R0000009  13.         
    C0000003  OBJROW    42.            R0000001   -11.       
    C0000003  R0000002  41.            R0000003  7.          
    C0000003  R0000004   -6.           R0000005   -18.       
    C0000003  R0000006  42.            R0000009   -1.        
    C0000004  OBJROW     -34.          R0000000   -5.        
    C0000004  R0000001   -3.           R0000002   -30.       
    C0000004  R0000003  15.            R0000005  48.         
    C0000004  R0000006   -15.          R0000008   -30.       
    C0000004  R0000009  39.         
    C0000005  OBJROW     -17.          R0000002   -31.       
    C0000005  R0000003  30.            R0000005   -26.       
    C0000005  R0000006  50.            R0000007  10.         
    C0000005  R0000009   -35.       
    C0000006  OBJROW    46.            R0000000   -24.       
    C0000006  R0000002   -35.          R0000003  1.          
    C0000006  R0000005   -12.          R0000006  18.         
    C0000006  R0000007  8.             R0000009   -40.       
    C0000007  OBJROW     -11.          R0000000  21.         
    C0000007  R0000002  1.             R0000003  22.         
    C0000007  R0000004   -39.          R0000005  18.         
    C0000007  R0000006   -25.          R0000007   -39.       
    C0000007  R0000008  48.            R0000009  29.         
    C0000008  OBJROW    45.            R0000002   -30.       
    C0000008  R0000003   -29.          R0000006  3.          
    C0000008  R0000007  14.            R0000008  28.         
    C0000009  OBJROW     -38.          R0000000  27.         
    C0000009  R0000001   -24.          R0000002   -9.        
    C0000009  R0000003  42.            R0000004  21.         
    C0000009  R0000006  15.            R0000007  11.         
    C0000009  R0000008   -40.          R0000009  34.         
    C0000010  OBJROW    40.            R0000001  1.          
    C0000010  R0000002   -3.           R0000003   -25.       
    C0000010  R0000004   -33.          R0000006   -39.       
    C0000010  R0000009   -43.       
    C0000011  OBJROW    8.             R0000000   -25.       
    C0000011  R0000002   -13.          R0000003  29.         
    C0000011  R0000004  13.            R0000005  3.          
    C0000011  R0000006   -45.          R0000007   -8.        
    C0000011  R0000008   -10.       
    C0000012  OBJROW    10.            R0000001   -22.       
    C0000012  R0000002  25.            R0000003   -11.       
    C0000012  R0000004   -18.          R0000005   -20.       
    C0000012  R0000006  12.            R0000007  4.          
    C0000012  R0000008   -29.          R0000009   -10.       
    C0000013  OBJROW     -17.          R0000002  41.         
    C0000013  R0000003   -38.          R0000005  27.         
    C0000013  R0000006  45.            R0000008  28.         
    C0000013  R0000009   -48.       
    C0000014  OBJROW     -23.          R0000000  40.         
    C0000014  R0000002   -34.          R0000003  4.          
    C0000014  R0000004  19.            R0000005  10.         
    C0000014  R0000006  21.            R0000007   -29.       
    C0000014  R0000008  1.             R0000009   -43.       
    C0000015  OBJROW    41.            R0000002  48.         
    C0000015  R0000003   -27.          R0000004  12.         
    C0000015  R0000005  8.             R0000006   -16.       
    C0000015  R0000008  49.            R0000009  43.         
    C0000016  OBJROW     -29.          R0000002   -34.       
    C0000016  R0000003   -7.           R0000004   -45.       
    C0000016  R0000006  46.            R0000009   -32.       
    C0000017  OBJROW    14.            R0000001  29.         
    C0000017  R0000002   -38.          R0000006  32.         
    C0000017  R0000007   -39.          R0000008  7.          
    C0000017  R0000009   -25.       
    C0000018  OBJROW    30.            R0000000   -28.       
    C0000018  R0000001  25.            R0000002  15.         
    C0000018  R0000003   -10.          R0000004  33.         
    C0000018  R0000006  23.            R0000007  12.         
    C0000018  R0000008   -8.           R0000009  21.         
    C0000019  OBJROW    23.            R0000001  10.         
    C0000019  R0000002   -10.          R0000003   -48.       
    C0000019  R0000004   -23.          R0000006  7.          
    C0000019  R0000007  6.             R0000008   -35.       
    C0000019  R0000009  17.         
    C0000020  OBJROW     -20.          R0000000  17.         
    C0000020  R0000002  33.            R0000003  28.         
    C0000020  R0000008   -15.          R0000009   -7.        
    C0000021  OBJROW    8.             R0000000   -38.       
    C0000021  R0000001   -37.          R0000002  20.         
    C0000021  R0000003  32.            R0000004   -31.       
    C0000021  R0000005   -30.          R0000006   -44.       
    C0000021  R0000009   -33.       
    C0000022  OBJROW    43.            R0000000  15.         
    C0000022  R0000001   -6.           R0000002  21.         
    C0000022  R0000003  1.             R0000005  3.          
    C0000022  R0000006   -48.          R0000007  29.         
    C0000022  R0000008  39.         
    C0000023  OBJROW    2.             R0000001  23.         
    C0000023  R0000002  8.             R0000003  23.         
    C0000023  R0000004   -1.           R0000005   -43.       
    C0000023  R0000006  21.            R0000007  47.         
    C0000023  R0000008  46.            R0000009   -34.       
    C0000024  OBJROW    6.             R0000001  2.          
    C0000024  R0000002  36.            R0000003  28.         
    C0000024  R0000004   -46.          R0000005   -34.       
    C0000024  R0000006   -1.           R0000007  38.         
    C0000024  R0000008  43.            R0000009   -13.       
RHS
    RHS       R0000000   -223.         R0000001   -41.       
    RHS       R0000002  99.            R0000003  105.        
    RHS       R0000004   -200.         R0000005  237.        
    RHS       R0000006  33.            R0000007   -36.       
    RHS       R0000008   -86.          R0000009   -399.      
BOUNDS
 UI BOUND     C0000000  500.        
 UI BOUND     C0000001  500.        
 UI BOUND     C0000002  500.        
 UI BOUND     C0000003  500.        
 UI BOUND     C0000004  500.        
 UI BOUND     C0000005  500.        
 UI BOUND     C0000006  500.        
 UI BOUND     C0000007  500.        
 UI BOUND     C0000008  500.        
 UI BOUND     C0000009  500.        
 UI BOUND     C0000010  500.        
 UI BOUND     C0000011  500.        
 UI BOUND     C0000012  500.        
 UI BOUND     C0000013  500.        
 UI BOUND     C0000014  500.        
 UI BOUND     C0000015  500.        
 UI BOUND     C0000016  500.        
 UI BOUND     C0000017  500.        
 UI BOUND     C0000018  500.        
 UI BOUND     C0000019  500.        
 UI BOUND     C0000020  500.        
 UI BOUND     C0000021  500.        
 UI BOUND     C0000022  500.        
 UI BOUND     C0000023  500.        
 UI BOUND     C0000024  500.        
ENDATA
