NAME          BLANK   
ROWS
 N  OBJROW
 L  R0000000
 L  R0000001
 L  R0000002
 L  R0000003
 L  R0000004
 L  R0000005
 L  R0000006
 L  R0000007
 L  R0000008
 L  R0000009
COLUMNS
    C0000000  OBJROW    23.            R0000000   -13.       
    C0000000  R0000002   -2.           R0000003   -34.       
    C0000000  R0000004   -16.          R0000005   -5.        
    C0000000  R0000007   -15.          R0000008  50.         
    C0000001  OBJROW     -21.          R0000000   -5.        
    C0000001  R0000001  15.            R0000004   -29.       
    C0000001  R0000005   -45.          R0000006   -26.       
    C0000001  R0000007   -29.          R0000008   -45.       
    C0000001  R0000009  34.         
    C0000002  OBJROW    49.            R0000000  48.         
    C0000002  R0000002  26.            R0000003  33.         
    C0000002  R0000004  41.            R0000005  20.         
    C0000002  R0000006  33.            R0000007   -4.        
    C0000003  OBJROW     -11.          R0000000   -39.       
    C0000003  R0000002   -20.          R0000003  5.          
    C0000003  R0000004   -47.          R0000005   -28.       
    C0000003  R0000006  31.            R0000008   -10.       
    C0000004  OBJROW     -43.          R0000000   -45.       
    C0000004  R0000003  3.             R0000004  42.         
    C0000004  R0000005  17.            R0000007   -16.       
    C0000004  R0000008  44.            R0000009   -40.       
    C0000005  OBJROW    29.            R0000000  7.          
    C0000005  R0000002  11.            R0000003   -45.       
    C0000005  R0000004  2.             R0000005   -33.       
    C0000005  R0000006   -6.           R0000007  3.          
    C0000005  R0000009  25.         
    C0000006  OBJROW    33.            R0000000  16.         
    C0000006  R0000001  20.            R0000002  47.         
    C0000006  R0000004  27.            R0000005  44.         
    C0000006  R0000006  17.            R0000007  9.          
    C0000006  R0000008   -43.       
    C0000007  OBJROW     -31.          R0000000   -22.       
    C0000007  R0000002   -7.           R0000004  17.         
    C0000007  R0000005   -25.          R0000007  3.          
    C0000007  R0000009   -29.       
    C0000008  OBJROW    45.            R0000000  40.         
    C0000008  R0000001  26.            R0000002  24.         
    C0000008  R0000003  26.            R0000004  43.         
    C0000008  R0000005  49.            R0000006  16.         
    C0000008  R0000007  36.            R0000008  48.         
    C0000009  OBJROW     -23.          R0000000  28.         
    C0000009  R0000001  3.             R0000002  1.          
    C0000009  R0000004   -50.          R0000005   -45.       
    C0000009  R0000007   -23.       
    C0000010  OBJROW    37.            R0000000   -12.       
    C0000010  R0000001   -47.          R0000002   -5.        
    C0000010  R0000003   -47.          R0000004  18.         
    C0000010  R0000005   -5.           R0000007   -1.        
    C0000010  R0000009  6.          
    C0000011  OBJROW     -41.          R0000000   -14.       
    C0000011  R0000001   -20.          R0000003   -44.       
    C0000011  R0000004  32.            R0000005   -42.       
    C0000011  R0000006  21.            R0000007   -5.        
    C0000011  R0000008   -6.        
    C0000012  OBJROW     -1.           R0000000   -45.       
    C0000012  R0000002   -48.          R0000003  27.         
    C0000012  R0000004  4.             R0000005   -29.       
    C0000012  R0000008  6.             R0000009   -12.       
    C0000013  OBJROW    22.            R0000000   -50.       
    C0000013  R0000001   -42.          R0000004   -15.       
    C0000013  R0000005   -50.          R0000007   -43.       
    C0000014  OBJROW    28.            R0000000   -29.       
    C0000014  R0000002   -27.          R0000004  34.         
    C0000014  R0000005   -35.          R0000006   -21.       
    C0000014  R0000007   -36.       
    C0000015  OBJROW     -8.           R0000000  38.         
    C0000015  R0000004  4.             R0000005   -49.       
    C0000015  R0000006  35.            R0000007   -42.       
    C0000015  R0000009  30.         
    C0000016  OBJROW    37.            R0000000  29.         
    C0000016  R0000002   -9.           R0000003  31.         
    C0000016  R0000004  50.            R0000006   -40.       
    C0000016  R0000009  22.         
    C0000017  OBJROW    20.            R0000000  36.         
    C0000017  R0000001  3.             R0000002   -48.       
    C0000017  R0000004   -33.          R0000005  9.          
    C0000017  R0000007  40.         
    C0000018  OBJROW    17.            R0000000  35.         
    C0000018  R0000004   -23.          R0000005   -35.       
    C0000018  R0000009  47.         
    C0000019  OBJROW    21.            R0000000   -38.       
    C0000019  R0000001  27.            R0000002   -46.       
    C0000019  R0000004   -25.          R0000005  32.         
    C0000019  R0000007  48.            R0000009   -50.       
    C0000020  OBJROW     -9.           R0000000  18.         
    C0000020  R0000001   -20.          R0000002   -40.       
    C0000020  R0000003   -39.          R0000005  46.         
    C0000020  R0000006   -21.          R0000007   -40.       
    C0000020  R0000008  22.         
    C0000021  OBJROW     -4.           R0000000  26.         
    C0000021  R0000001  25.            R0000002   -41.       
    C0000021  R0000004  46.            R0000005   -27.       
    C0000021  R0000006   -38.          R0000007   -21.       
    C0000021  R0000008  28.            R0000009  33.         
    C0000022  OBJROW    4.             R0000000  24.         
    C0000022  R0000001  7.             R0000003   -37.       
    C0000022  R0000004  20.            R0000005  41.         
    C0000022  R0000007  41.            R0000009   -43.       
    C0000023  OBJROW    13.            R0000000  48.         
    C0000023  R0000001  49.            R0000004  41.         
    C0000023  R0000005   -22.          R0000006  47.         
    C0000023  R0000007  31.            R0000008   -38.       
    C0000023  R0000009  38.         
    C0000024  OBJROW     -16.          R0000000   -31.       
    C0000024  R0000001   -26.          R0000004  22.         
    C0000024  R0000007  6.          
    C0000025  OBJROW     -31.          R0000000  37.         
    C0000025  R0000001   -14.          R0000003  48.         
    C0000025  R0000004   -8.           R0000005   -19.       
    C0000025  R0000007  1.             R0000008  48.         
    C0000026  OBJROW    40.            R0000000  2.          
    C0000026  R0000004  34.            R0000005  1.          
    C0000026  R0000007  20.         
    C0000027  OBJROW     -45.          R0000000  48.         
    C0000027  R0000001  42.            R0000002  4.          
    C0000027  R0000004  36.            R0000005  14.         
    C0000027  R0000006   -16.          R0000007   -45.       
    C0000028  OBJROW     -4.           R0000000  37.         
    C0000028  R0000001  24.            R0000003  38.         
    C0000028  R0000004  28.            R0000005  9.          
    C0000028  R0000007   -39.       
    C0000029  OBJROW    24.            R0000000   -24.       
    C0000029  R0000001  21.            R0000002   -9.        
    C0000029  R0000004  12.            R0000006   -2.        
    C0000029  R0000007   -3.        
RHS
    RHS       R0000000  413.           R0000001  279.        
    RHS       R0000002   -557.         R0000003  43.         
    RHS       R0000004  455.           R0000005  128.        
    RHS       R0000006   -85.          R0000007   -499.      
    RHS       R0000008  236.           R0000009  105.        
BOUNDS
 UI BOUND     C0000000  500.        
 UI BOUND     C0000001  500.        
 UI BOUND     C0000002  500.        
 UI BOUND     C0000003  500.        
 UI BOUND     C0000004  500.        
 UI BOUND     C0000005  500.        
 UI BOUND     C0000006  500.        
 UI BOUND     C0000007  500.        
 UI BOUND     C0000008  500.        
 UI BOUND     C0000009  500.        
 UI BOUND     C0000010  500.        
 UI BOUND     C0000011  500.        
 UI BOUND     C0000012  500.        
 UI BOUND     C0000013  500.        
 UI BOUND     C0000014  500.        
 UI BOUND     C0000015  500.        
 UI BOUND     C0000016  500.        
 UI BOUND     C0000017  500.        
 UI BOUND     C0000018  500.        
 UI BOUND     C0000019  500.        
 UI BOUND     C0000020  500.        
 UI BOUND     C0000021  500.        
 UI BOUND     C0000022  500.        
 UI BOUND     C0000023  500.        
 UI BOUND     C0000024  500.        
 UI BOUND     C0000025  500.        
 UI BOUND     C0000026  500.        
 UI BOUND     C0000027  500.        
 UI BOUND     C0000028  500.        
 UI BOUND     C0000029  500.        
ENDATA
