NAME          BLANK   
ROWS
 N  OBJROW
 L  R0000000
 L  R0000001
 L  R0000002
 L  R0000003
 L  R0000004
 L  R0000005
 L  R0000006
 L  R0000007
 L  R0000008
 L  R0000009
 L  R0000010
 L  R0000011
 L  R0000012
 L  R0000013
 L  R0000014
COLUMNS
    C0000000  OBJROW     -26.          R0000000  22.         
    C0000000  R0000005  25.            R0000006   -42.       
    C0000000  R0000007  42.            R0000008   -33.       
    C0000000  R0000013   -39.          R0000014  17.         
    C0000001  OBJROW     -15.          R0000001  45.         
    C0000001  R0000003  48.            R0000004  3.          
    C0000001  R0000005   -12.          R0000008   -3.        
    C0000001  R0000009   -46.          R0000011  21.         
    C0000001  R0000013  24.         
    C0000002  OBJROW    48.            R0000000  17.         
    C0000002  R0000003   -21.          R0000004  43.         
    C0000002  R0000005  31.            R0000007  9.          
    C0000002  R0000008  34.            R0000011   -2.        
    C0000002  R0000012   -17.          R0000013   -7.        
    C0000002  R0000014   -21.       
    C0000003  OBJROW    6.             R0000003   -21.       
    C0000003  R0000004  23.            R0000006   -28.       
    C0000003  R0000007   -38.          R0000008   -17.       
    C0000003  R0000012  32.         
    C0000004  OBJROW     -32.          R0000000   -46.       
    C0000004  R0000005  41.            R0000007   -2.        
    C0000004  R0000008   -36.          R0000009   -27.       
    C0000004  R0000012   -20.          R0000014  46.         
    C0000005  OBJROW     -28.          R0000000  18.         
    C0000005  R0000001   -13.          R0000005   -41.       
    C0000005  R0000006   -19.          R0000007   -41.       
    C0000005  R0000008  31.            R0000012   -12.       
    C0000005  R0000013  5.             R0000014  27.         
    C0000006  OBJROW     -28.          R0000000  49.         
    C0000006  R0000001  48.            R0000002  48.         
    C0000006  R0000003  10.            R0000005  22.         
    C0000006  R0000007   -42.          R0000009  32.         
    C0000006  R0000010  48.            R0000012   -20.       
    C0000006  R0000014  21.         
    C0000007  OBJROW    25.            R0000001  22.         
    C0000007  R0000002  42.            R0000003  21.         
    C0000007  R0000004  49.            R0000006   -50.       
    C0000007  R0000007  2.             R0000008   -48.       
    C0000007  R0000009  48.            R0000010  3.          
    C0000007  R0000011   -35.          R0000012  41.         
    C0000007  R0000013  41.            R0000014  18.         
    C0000008  OBJROW    36.            R0000001  46.         
    C0000008  R0000002  40.            R0000003   -34.       
    C0000008  R0000005  23.            R0000007   -26.       
    C0000008  R0000008  33.            R0000009  9.          
    C0000008  R0000010  18.            R0000013   -33.       
    C0000008  R0000014  19.         
    C0000009  OBJROW    35.            R0000001  27.         
    C0000009  R0000002  45.            R0000005   -35.       
    C0000009  R0000008   -17.          R0000011  31.         
    C0000009  R0000012  5.             R0000013   -26.       
    C0000009  R0000014   -35.       
    C0000010  OBJROW     -39.          R0000000  17.         
    C0000010  R0000001   -33.          R0000002   -34.       
    C0000010  R0000003  13.            R0000005   -31.       
    C0000010  R0000007  5.             R0000009   -32.       
    C0000010  R0000011   -35.          R0000012  49.         
    C0000010  R0000013  23.            R0000014  40.         
    C0000011  OBJROW    23.            R0000000  31.         
    C0000011  R0000003  9.             R0000004  45.         
    C0000011  R0000005  39.            R0000006  9.          
    C0000011  R0000007  7.             R0000010   -12.       
    C0000011  R0000011   -8.           R0000012   -27.       
    C0000011  R0000013  41.            R0000014   -27.       
    C0000012  OBJROW    28.            R0000000  50.         
    C0000012  R0000003  4.             R0000004   -20.       
    C0000012  R0000005  31.            R0000006   -12.       
    C0000012  R0000007  24.            R0000010  37.         
    C0000012  R0000014  31.         
    C0000013  OBJROW     -4.           R0000002   -37.       
    C0000013  R0000003   -35.          R0000004   -32.       
    C0000013  R0000005  29.            R0000006  20.         
    C0000013  R0000007   -49.          R0000008  45.         
    C0000013  R0000009  2.             R0000010   -35.       
    C0000013  R0000012   -28.          R0000013   -32.       
    C0000013  R0000014   -45.       
    C0000014  OBJROW     -10.          R0000001   -12.       
    C0000014  R0000002   -45.          R0000003   -23.       
    C0000014  R0000004  7.             R0000007   -50.       
    C0000014  R0000008  42.            R0000009  48.         
    C0000014  R0000011  2.             R0000012  30.         
    C0000014  R0000013  37.         
    C0000015  OBJROW     -24.          R0000000  5.          
    C0000015  R0000002   -9.           R0000003  23.         
    C0000015  R0000004   -22.          R0000005   -1.        
    C0000015  R0000007  50.            R0000010  35.         
    C0000015  R0000012   -9.           R0000013  48.         
    C0000015  R0000014  11.         
    C0000016  OBJROW    26.            R0000001  18.         
    C0000016  R0000003  1.             R0000005  8.          
    C0000016  R0000007  21.            R0000008   -25.       
    C0000016  R0000009   -36.          R0000011  14.         
    C0000016  R0000012  40.            R0000013  21.         
    C0000016  R0000014  10.         
    C0000017  OBJROW    30.            R0000003  40.         
    C0000017  R0000004   -11.          R0000005  16.         
    C0000017  R0000006   -19.          R0000007   -49.       
    C0000017  R0000009   -43.          R0000011  8.          
    C0000017  R0000012   -6.           R0000013  41.         
    C0000018  OBJROW    20.            R0000000  36.         
    C0000018  R0000001  38.            R0000002   -20.       
    C0000018  R0000003   -6.           R0000004  4.          
    C0000018  R0000005   -25.          R0000007  12.         
    C0000018  R0000010  10.            R0000011  38.         
    C0000018  R0000012   -21.          R0000013  12.         
    C0000018  R0000014  35.         
    C0000019  OBJROW     -41.          R0000001  9.          
    C0000019  R0000002   -39.          R0000005   -19.       
    C0000019  R0000006  4.             R0000007   -35.       
    C0000019  R0000008  41.            R0000011   -50.       
    C0000019  R0000012  26.            R0000013   -25.       
RHS
    RHS       R0000000  132.           R0000001  92.         
    RHS       R0000002  25.            R0000003  125.        
    RHS       R0000004   -37.          R0000005  47.         
    RHS       R0000006   -141.         R0000007   -138.      
    RHS       R0000008   -138.         R0000009   -103.      
    RHS       R0000010  377.           R0000011   -67.       
    RHS       R0000012   -39.          R0000013  336.        
    RHS       R0000014  605.        
BOUNDS
 UI BOUND     C0000000  500.        
 UI BOUND     C0000001  500.        
 UI BOUND     C0000002  500.        
 UI BOUND     C0000003  500.        
 UI BOUND     C0000004  500.        
 UI BOUND     C0000005  500.        
 UI BOUND     C0000006  500.        
 UI BOUND     C0000007  500.        
 UI BOUND     C0000008  500.        
 UI BOUND     C0000009  500.        
 UI BOUND     C0000010  500.        
 UI BOUND     C0000011  500.        
 UI BOUND     C0000012  500.        
 UI BOUND     C0000013  500.        
 UI BOUND     C0000014  500.        
 UI BOUND     C0000015  500.        
 UI BOUND     C0000016  500.        
 UI BOUND     C0000017  500.        
 UI BOUND     C0000018  500.        
 UI BOUND     C0000019  500.        
ENDATA
