NAME          BLANK   
ROWS
 N  OBJROW
 L  R0000000
 L  R0000001
 L  R0000002
 L  R0000003
 L  R0000004
 L  R0000005
 L  R0000006
 L  R0000007
 L  R0000008
 L  R0000009
 L  R0000010
 L  R0000011
 L  R0000012
 L  R0000013
 L  R0000014
COLUMNS
    C0000000  OBJROW     -37.          R0000000   -39.       
    C0000000  R0000001  12.            R0000004  31.         
    C0000000  R0000005   -2.           R0000006   -31.       
    C0000000  R0000007  48.            R0000009  39.         
    C0000000  R0000011   -37.          R0000014   -44.       
    C0000001  OBJROW    1.             R0000000   -42.       
    C0000001  R0000001  34.            R0000002  47.         
    C0000001  R0000004   -14.          R0000006   -31.       
    C0000001  R0000007  16.            R0000008   -17.       
    C0000001  R0000010   -12.          R0000011  23.         
    C0000001  R0000012  5.             R0000013   -28.       
    C0000001  R0000014   -50.       
    C0000002  OBJROW     -44.          R0000000  10.         
    C0000002  R0000002   -4.           R0000003  21.         
    C0000002  R0000004   -45.          R0000005   -27.       
    C0000002  R0000006  40.            R0000008   -25.       
    C0000002  R0000009  40.            R0000011   -41.       
    C0000002  R0000013  16.         
    C0000003  OBJROW    42.            R0000000  46.         
    C0000003  R0000002   -15.          R0000004  3.          
    C0000003  R0000007  43.            R0000008  4.          
    C0000003  R0000010   -3.           R0000013   -30.       
    C0000003  R0000014   -13.       
    C0000004  OBJROW     -45.          R0000000  11.         
    C0000004  R0000001  45.            R0000004  24.         
    C0000004  R0000005   -17.          R0000006   -47.       
    C0000004  R0000008  31.            R0000010  9.          
    C0000004  R0000011   -33.          R0000014   -20.       
    C0000005  OBJROW     -41.          R0000000   -5.        
    C0000005  R0000001   -2.           R0000002  7.          
    C0000005  R0000003  42.            R0000004   -42.       
    C0000005  R0000005   -2.           R0000007  34.         
    C0000005  R0000008  8.             R0000009   -27.       
    C0000005  R0000011  20.            R0000012   -7.        
    C0000005  R0000014   -12.       
    C0000006  OBJROW    8.             R0000000   -12.       
    C0000006  R0000001  4.             R0000003  43.         
    C0000006  R0000004  49.            R0000007   -14.       
    C0000006  R0000008   -28.          R0000010  36.         
    C0000006  R0000013   -15.          R0000014   -2.        
    C0000007  OBJROW     -34.          R0000000  14.         
    C0000007  R0000003   -18.          R0000004   -13.       
    C0000007  R0000005  16.            R0000006  46.         
    C0000007  R0000007  25.            R0000008   -23.       
    C0000007  R0000009  6.             R0000010   -37.       
    C0000007  R0000011  12.            R0000012   -15.       
    C0000007  R0000013   -17.          R0000014  39.         
    C0000008  OBJROW    1.             R0000000  12.         
    C0000008  R0000001  11.            R0000002   -27.       
    C0000008  R0000003  32.            R0000004  5.          
    C0000008  R0000005   -39.          R0000007   -39.       
    C0000008  R0000008   -5.           R0000009  13.         
    C0000008  R0000010   -11.          R0000013  45.         
    C0000008  R0000014  11.         
    C0000009  OBJROW     -18.          R0000000   -30.       
    C0000009  R0000002   -50.          R0000004  25.         
    C0000009  R0000005   -35.          R0000006   -12.       
    C0000009  R0000007  12.            R0000008  13.         
    C0000009  R0000009  32.            R0000010  8.          
    C0000009  R0000012  49.            R0000014   -31.       
    C0000010  OBJROW    26.            R0000000   -5.        
    C0000010  R0000002  19.            R0000003  5.          
    C0000010  R0000004   -50.          R0000006   -10.       
    C0000010  R0000007  46.            R0000008   -19.       
    C0000010  R0000009   -8.           R0000010   -4.        
    C0000010  R0000013  27.            R0000014   -27.       
    C0000011  OBJROW     -42.          R0000000  50.         
    C0000011  R0000001  14.            R0000002   -22.       
    C0000011  R0000004   -40.          R0000006  26.         
    C0000011  R0000007  42.            R0000009   -14.       
    C0000011  R0000010  39.            R0000011  48.         
    C0000011  R0000012  24.            R0000013   -18.       
    C0000012  OBJROW     -11.          R0000000   -28.       
    C0000012  R0000002  1.             R0000003  9.          
    C0000012  R0000004   -16.          R0000005  8.          
    C0000012  R0000007   -4.           R0000008  34.         
    C0000012  R0000009   -45.          R0000010   -18.       
    C0000012  R0000011  29.            R0000012   -39.       
    C0000012  R0000013   -16.          R0000014   -50.       
    C0000013  OBJROW     -46.          R0000000  31.         
    C0000013  R0000002  7.             R0000003  12.         
    C0000013  R0000004  12.            R0000005  32.         
    C0000013  R0000006  24.            R0000007   -13.       
    C0000013  R0000008   -37.          R0000011   -14.       
    C0000013  R0000012  12.            R0000013   -27.       
    C0000014  OBJROW     -47.          R0000000   -28.       
    C0000014  R0000003   -49.          R0000004   -13.       
    C0000014  R0000005   -50.          R0000007  31.         
    C0000014  R0000008  10.            R0000009  14.         
    C0000014  R0000010   -48.          R0000011  30.         
    C0000014  R0000012  41.            R0000014  26.         
    C0000015  OBJROW    46.            R0000000   -20.       
    C0000015  R0000001   -50.          R0000002   -19.       
    C0000015  R0000004  48.            R0000005  48.         
    C0000015  R0000006  15.            R0000007   -8.        
    C0000015  R0000008   -28.          R0000012  29.         
    C0000015  R0000013  13.         
    C0000016  OBJROW    30.            R0000001  11.         
    C0000016  R0000002   -23.          R0000004  23.         
    C0000016  R0000007  32.            R0000010  22.         
    C0000016  R0000011   -19.          R0000012  45.         
    C0000016  R0000014   -4.        
    C0000017  OBJROW     -25.          R0000000   -38.       
    C0000017  R0000004  39.            R0000005  3.          
    C0000017  R0000007  32.            R0000008  13.         
    C0000017  R0000014  39.         
    C0000018  OBJROW    42.            R0000000  16.         
    C0000018  R0000001   -12.          R0000002  11.         
    C0000018  R0000004   -37.          R0000007  30.         
    C0000018  R0000008  3.             R0000010  24.         
    C0000018  R0000012   -9.           R0000013   -50.       
    C0000019  OBJROW    34.            R0000000  41.         
    C0000019  R0000001  20.            R0000002  34.         
    C0000019  R0000004   -22.          R0000006  4.          
    C0000019  R0000007  46.            R0000011  21.         
    C0000019  R0000012   -10.          R0000014  5.          
RHS
    RHS       R0000000  277.           R0000001  21.         
    RHS       R0000002   -299.         R0000003  30.         
    RHS       R0000004   -276.         R0000005   -92.       
    RHS       R0000006  106.           R0000007  505.        
    RHS       R0000008  106.           R0000009   -32.       
    RHS       R0000010  327.           R0000011  265.        
    RHS       R0000012  250.           R0000013   -459.      
    RHS       R0000014   -254.      
BOUNDS
 UI BOUND     C0000000  500.        
 UI BOUND     C0000001  500.        
 UI BOUND     C0000002  500.        
 UI BOUND     C0000003  500.        
 UI BOUND     C0000004  500.        
 UI BOUND     C0000005  500.        
 UI BOUND     C0000006  500.        
 UI BOUND     C0000007  500.        
 UI BOUND     C0000008  500.        
 UI BOUND     C0000009  500.        
 UI BOUND     C0000010  500.        
 UI BOUND     C0000011  500.        
 UI BOUND     C0000012  500.        
 UI BOUND     C0000013  500.        
 UI BOUND     C0000014  500.        
 UI BOUND     C0000015  500.        
 UI BOUND     C0000016  500.        
 UI BOUND     C0000017  500.        
 UI BOUND     C0000018  500.        
 UI BOUND     C0000019  500.        
ENDATA
