NAME          BLANK   
ROWS
 N  OBJROW
 L  R0000000
 L  R0000001
 L  R0000002
 L  R0000003
 L  R0000004
 L  R0000005
 L  R0000006
 L  R0000007
 L  R0000008
 L  R0000009
 L  R0000010
 L  R0000011
 L  R0000012
 L  R0000013
 L  R0000014
COLUMNS
    C0000000  OBJROW     -18.          R0000001  32.         
    C0000000  R0000002   -35.          R0000003   -18.       
    C0000000  R0000004   -14.          R0000005  26.         
    C0000000  R0000006  19.            R0000008  15.         
    C0000000  R0000009   -2.           R0000010  7.          
    C0000000  R0000011   -49.          R0000012   -25.       
    C0000000  R0000013   -1.        
    C0000001  OBJROW     -39.          R0000002  13.         
    C0000001  R0000003   -45.          R0000004  42.         
    C0000001  R0000006  40.            R0000007   -25.       
    C0000001  R0000008  4.             R0000009  19.         
    C0000001  R0000010   -44.          R0000011   -13.       
    C0000001  R0000012  16.            R0000013   -15.       
    C0000001  R0000014  3.          
    C0000002  OBJROW    31.            R0000000   -10.       
    C0000002  R0000002   -38.          R0000003  43.         
    C0000002  R0000004   -34.          R0000005  19.         
    C0000002  R0000008  21.            R0000009  14.         
    C0000002  R0000010  20.            R0000012   -17.       
    C0000002  R0000014  42.         
    C0000003  OBJROW     -13.          R0000000  5.          
    C0000003  R0000001   -36.          R0000002   -31.       
    C0000003  R0000003   -26.          R0000004  32.         
    C0000003  R0000008   -16.          R0000009  5.          
    C0000003  R0000010   -23.          R0000012  16.         
    C0000003  R0000013  23.            R0000014  10.         
    C0000004  OBJROW    15.            R0000000   -42.       
    C0000004  R0000003  4.             R0000004   -28.       
    C0000004  R0000005  38.            R0000008   -8.        
    C0000004  R0000010   -48.          R0000011   -19.       
    C0000004  R0000012   -43.          R0000013   -24.       
    C0000004  R0000014   -24.       
    C0000005  OBJROW    40.            R0000002   -42.       
    C0000005  R0000003  16.            R0000004   -8.        
    C0000005  R0000007  12.            R0000008  27.         
    C0000005  R0000009  2.             R0000010   -3.        
    C0000005  R0000011   -32.          R0000012  6.          
    C0000005  R0000013   -38.          R0000014   -10.       
    C0000006  OBJROW    36.            R0000002   -8.        
    C0000006  R0000003   -35.          R0000004  39.         
    C0000006  R0000006   -44.          R0000007  7.          
    C0000006  R0000009  46.            R0000010  34.         
    C0000006  R0000011  38.            R0000012   -40.       
    C0000006  R0000013  13.            R0000014   -30.       
    C0000007  OBJROW     -19.          R0000001   -40.       
    C0000007  R0000002  41.            R0000003  19.         
    C0000007  R0000004  37.            R0000007   -7.        
    C0000007  R0000008  21.            R0000009   -42.       
    C0000007  R0000010  47.            R0000012  13.         
    C0000007  R0000013   -21.          R0000014  7.          
    C0000008  OBJROW    30.            R0000000  2.          
    C0000008  R0000001   -47.          R0000003  41.         
    C0000008  R0000004   -5.           R0000007  5.          
    C0000008  R0000008  11.            R0000009   -21.       
    C0000008  R0000010   -26.          R0000012   -45.       
    C0000008  R0000013  41.            R0000014  18.         
    C0000009  OBJROW    20.            R0000001   -20.       
    C0000009  R0000002   -46.          R0000003   -25.       
    C0000009  R0000004  38.            R0000007   -41.       
    C0000009  R0000008  18.            R0000009  43.         
    C0000009  R0000010  27.            R0000012   -21.       
    C0000009  R0000013   -13.       
    C0000010  OBJROW     -2.           R0000002   -31.       
    C0000010  R0000003  30.            R0000004   -23.       
    C0000010  R0000005   -11.          R0000006   -36.       
    C0000010  R0000007   -14.          R0000008   -41.       
    C0000010  R0000009   -2.           R0000010  3.          
    C0000010  R0000012  49.            R0000014   -15.       
    C0000011  OBJROW     -5.           R0000001  32.         
    C0000011  R0000002   -23.          R0000003  28.         
    C0000011  R0000004  1.             R0000006  34.         
    C0000011  R0000007   -17.          R0000008  31.         
    C0000011  R0000010   -23.          R0000011  31.         
    C0000011  R0000012   -8.           R0000014  8.          
    C0000012  OBJROW     -12.          R0000001  44.         
    C0000012  R0000002   -41.          R0000004  26.         
    C0000012  R0000005   -8.           R0000006  36.         
    C0000012  R0000007   -9.           R0000008  49.         
    C0000012  R0000009  18.            R0000010   -10.       
    C0000012  R0000012  34.            R0000013  3.          
    C0000012  R0000014   -31.       
    C0000013  OBJROW     -1.           R0000002  24.         
    C0000013  R0000003   -9.           R0000004  38.         
    C0000013  R0000008   -2.           R0000009   -50.       
    C0000013  R0000010  42.            R0000011   -41.       
    C0000013  R0000012   -37.          R0000013   -45.       
    C0000013  R0000014   -32.       
    C0000014  OBJROW     -39.          R0000000   -45.       
    C0000014  R0000002  37.            R0000003  36.         
    C0000014  R0000004  27.            R0000006   -27.       
    C0000014  R0000010   -24.          R0000011   -40.       
    C0000014  R0000012  8.             R0000013   -4.        
    C0000014  R0000014  7.          
    C0000015  OBJROW    14.            R0000001  33.         
    C0000015  R0000002  11.            R0000003  25.         
    C0000015  R0000004  3.             R0000007   -37.       
    C0000015  R0000008   -28.          R0000009  33.         
    C0000015  R0000010   -5.           R0000012   -34.       
    C0000015  R0000013  27.            R0000014   -3.        
    C0000016  OBJROW    11.            R0000002   -19.       
    C0000016  R0000003   -1.           R0000004  37.         
    C0000016  R0000006  39.            R0000007   -43.       
    C0000016  R0000008   -13.          R0000009  46.         
    C0000016  R0000010  18.            R0000013  9.          
    C0000016  R0000014   -48.       
    C0000017  OBJROW    1.             R0000000   -44.       
    C0000017  R0000001  43.            R0000002  46.         
    C0000017  R0000003   -23.          R0000004  14.         
    C0000017  R0000006   -23.          R0000007   -31.       
    C0000017  R0000009   -13.          R0000010  50.         
    C0000017  R0000012  30.            R0000013  8.          
    C0000017  R0000014  47.         
    C0000018  OBJROW     -28.          R0000002  4.          
    C0000018  R0000003  18.            R0000004  2.          
    C0000018  R0000009  22.            R0000010   -30.       
    C0000018  R0000012  30.            R0000013   -35.       
    C0000018  R0000014   -32.       
    C0000019  OBJROW     -12.          R0000000   -16.       
    C0000019  R0000002  43.            R0000003  21.         
    C0000019  R0000004  49.            R0000005  6.          
    C0000019  R0000007   -33.          R0000008  19.         
    C0000019  R0000009   -41.          R0000010   -20.       
    C0000019  R0000012   -12.          R0000014  44.         
    C0000020  OBJROW    6.             R0000002  2.          
    C0000020  R0000003  35.            R0000004  49.         
    C0000020  R0000005  15.            R0000007   -5.        
    C0000020  R0000010   -29.          R0000011  7.          
    C0000020  R0000012  21.            R0000013   -32.       
    C0000020  R0000014   -19.       
    C0000021  OBJROW     -26.          R0000000  10.         
    C0000021  R0000001   -12.          R0000002  35.         
    C0000021  R0000003   -37.          R0000004   -9.        
    C0000021  R0000006   -27.          R0000007   -4.        
    C0000021  R0000008  42.            R0000009   -48.       
    C0000021  R0000010  19.            R0000012   -43.       
    C0000021  R0000013  5.             R0000014  15.         
    C0000022  OBJROW     -19.          R0000000   -17.       
    C0000022  R0000001  27.            R0000002   -44.       
    C0000022  R0000003  28.            R0000004   -10.       
    C0000022  R0000007   -41.          R0000008  44.         
    C0000022  R0000009  48.            R0000010  44.         
    C0000022  R0000011  26.            R0000012   -32.       
    C0000022  R0000014  5.          
    C0000023  OBJROW     -2.           R0000000  46.         
    C0000023  R0000001  40.            R0000002   -47.       
    C0000023  R0000003   -28.          R0000004  18.         
    C0000023  R0000005   -40.          R0000007  26.         
    C0000023  R0000008  41.            R0000009  29.         
    C0000023  R0000010  15.            R0000011  26.         
    C0000023  R0000012   -35.          R0000013   -21.       
    C0000023  R0000014  47.         
    C0000024  OBJROW     -22.          R0000000   -50.       
    C0000024  R0000001   -14.          R0000002  29.         
    C0000024  R0000004   -48.          R0000006  25.         
    C0000024  R0000007   -10.          R0000008   -30.       
    C0000024  R0000010  3.             R0000011  35.         
    C0000024  R0000012  28.            R0000013  34.         
    C0000024  R0000014  7.          
RHS
    RHS       R0000000  67.            R0000001  110.        
    RHS       R0000002   -573.         R0000003   -193.      
    RHS       R0000004  510.           R0000005   -137.      
    RHS       R0000006  134.           R0000007   -410.      
    RHS       R0000008   -84.          R0000009  619.        
    RHS       R0000010   -38.          R0000011  105.        
    RHS       R0000012  67.            R0000013  183.        
    RHS       R0000014   -207.      
BOUNDS
 UI BOUND     C0000000  500.        
 UI BOUND     C0000001  500.        
 UI BOUND     C0000002  500.        
 UI BOUND     C0000003  500.        
 UI BOUND     C0000004  500.        
 UI BOUND     C0000005  500.        
 UI BOUND     C0000006  500.        
 UI BOUND     C0000007  500.        
 UI BOUND     C0000008  500.        
 UI BOUND     C0000009  500.        
 UI BOUND     C0000010  500.        
 UI BOUND     C0000011  500.        
 UI BOUND     C0000012  500.        
 UI BOUND     C0000013  500.        
 UI BOUND     C0000014  500.        
 UI BOUND     C0000015  500.        
 UI BOUND     C0000016  500.        
 UI BOUND     C0000017  500.        
 UI BOUND     C0000018  500.        
 UI BOUND     C0000019  500.        
 UI BOUND     C0000020  500.        
 UI BOUND     C0000021  500.        
 UI BOUND     C0000022  500.        
 UI BOUND     C0000023  500.        
 UI BOUND     C0000024  500.        
ENDATA
