NAME          BLANK   
ROWS
 N  OBJROW
 L  R0000000
 L  R0000001
 L  R0000002
 L  R0000003
 L  R0000004
 L  R0000005
 L  R0000006
 L  R0000007
 L  R0000008
 L  R0000009
 L  R0000010
 L  R0000011
 L  R0000012
 L  R0000013
 L  R0000014
COLUMNS
    C0000000  OBJROW     -37.          R0000000   -44.       
    C0000000  R0000002   -9.           R0000005  37.         
    C0000000  R0000006  37.            R0000007   -27.       
    C0000000  R0000010   -6.           R0000012  49.         
    C0000000  R0000013  1.          
    C0000001  OBJROW    42.            R0000002  19.         
    C0000001  R0000004   -38.          R0000005   -35.       
    C0000001  R0000006   -40.          R0000007  42.         
    C0000001  R0000008  2.             R0000010   -38.       
    C0000001  R0000011  28.            R0000012  11.         
    C0000001  R0000013  38.            R0000014   -13.       
    C0000002  OBJROW     -26.          R0000002  36.         
    C0000002  R0000003   -29.          R0000004   -6.        
    C0000002  R0000005   -26.          R0000006  44.         
    C0000002  R0000007  36.            R0000008   -20.       
    C0000002  R0000009  8.             R0000012  45.         
    C0000003  OBJROW    28.            R0000003  22.         
    C0000003  R0000004   -47.          R0000005  18.         
    C0000003  R0000006  34.            R0000007   -22.       
    C0000003  R0000008  13.            R0000009  41.         
    C0000003  R0000011  29.            R0000012  21.         
    C0000003  R0000013  43.            R0000014   -10.       
    C0000004  OBJROW     -7.           R0000000   -38.       
    C0000004  R0000001  18.            R0000002  27.         
    C0000004  R0000004   -7.           R0000005  6.          
    C0000004  R0000006   -17.          R0000008  35.         
    C0000004  R0000009  28.            R0000010   -9.        
    C0000004  R0000012   -11.          R0000014  7.          
    C0000005  OBJROW    37.            R0000001  31.         
    C0000005  R0000002  45.            R0000003   -18.       
    C0000005  R0000005   -21.          R0000007  49.         
    C0000005  R0000008  15.            R0000009  38.         
    C0000005  R0000011  18.            R0000012   -26.       
    C0000005  R0000013  31.            R0000014   -36.       
    C0000006  OBJROW     -38.          R0000000  39.         
    C0000006  R0000002   -10.          R0000003  45.         
    C0000006  R0000004  13.            R0000005  37.         
    C0000006  R0000006  11.            R0000007  14.         
    C0000006  R0000008   -18.          R0000012  32.         
    C0000006  R0000013   -26.          R0000014  1.          
    C0000007  OBJROW    17.            R0000002  20.         
    C0000007  R0000004   -46.          R0000005  1.          
    C0000007  R0000006  9.             R0000007  49.         
    C0000007  R0000008   -45.          R0000009  21.         
    C0000007  R0000010   -12.          R0000011  28.         
    C0000007  R0000012   -16.          R0000014   -24.       
    C0000008  OBJROW    11.            R0000000   -4.        
    C0000008  R0000002  15.            R0000004   -43.       
    C0000008  R0000005  29.            R0000006  30.         
    C0000008  R0000007  8.             R0000008  28.         
    C0000008  R0000009  31.            R0000010   -34.       
    C0000008  R0000012  8.             R0000014   -50.       
    C0000009  OBJROW    9.             R0000001  15.         
    C0000009  R0000002   -33.          R0000003   -36.       
    C0000009  R0000004  50.            R0000005   -23.       
    C0000009  R0000006   -5.           R0000007  23.         
    C0000009  R0000008  11.            R0000009  1.          
    C0000009  R0000010   -15.          R0000012   -48.       
    C0000009  R0000013  13.            R0000014   -47.       
    C0000010  OBJROW     -23.          R0000001   -20.       
    C0000010  R0000004  44.            R0000005   -39.       
    C0000010  R0000006  15.            R0000007  49.         
    C0000010  R0000008  15.            R0000010   -40.       
    C0000010  R0000012  44.         
    C0000011  OBJROW     -36.          R0000000   -24.       
    C0000011  R0000001  31.            R0000003   -46.       
    C0000011  R0000004   -47.          R0000005  7.          
    C0000011  R0000006   -21.          R0000007  36.         
    C0000011  R0000008   -48.          R0000009  2.          
    C0000011  R0000010  34.            R0000013  34.         
    C0000011  R0000014   -26.       
    C0000012  OBJROW    9.             R0000002   -3.        
    C0000012  R0000004   -11.          R0000005   -30.       
    C0000012  R0000006   -1.           R0000007  31.         
    C0000012  R0000009   -29.          R0000010   -22.       
    C0000012  R0000011  29.            R0000012  46.         
    C0000012  R0000013  18.         
    C0000013  OBJROW     -29.          R0000000  4.          
    C0000013  R0000001  3.             R0000002   -30.       
    C0000013  R0000003   -5.           R0000005   -20.       
    C0000013  R0000006   -38.          R0000007   -11.       
    C0000013  R0000008  9.             R0000009   -21.       
    C0000013  R0000011   -46.          R0000012   -17.       
    C0000013  R0000013   -12.       
    C0000014  OBJROW     -2.           R0000000  19.         
    C0000014  R0000001  26.            R0000002   -26.       
    C0000014  R0000003   -23.          R0000005  42.         
    C0000014  R0000006   -8.           R0000007  49.         
    C0000014  R0000008   -15.          R0000009   -6.        
    C0000014  R0000010  17.            R0000012  24.         
    C0000014  R0000013  50.            R0000014   -10.       
    C0000015  OBJROW    2.             R0000002   -19.       
    C0000015  R0000004   -25.          R0000005   -33.       
    C0000015  R0000006  46.            R0000007  20.         
    C0000015  R0000008   -18.          R0000010   -26.       
    C0000015  R0000012  47.            R0000014   -24.       
    C0000016  OBJROW    39.            R0000000   -9.        
    C0000016  R0000001  22.            R0000003  41.         
    C0000016  R0000004  7.             R0000005  13.         
    C0000016  R0000006   -38.          R0000007   -25.       
    C0000016  R0000008  26.            R0000009  1.          
    C0000016  R0000011  46.            R0000012   -42.       
    C0000016  R0000014  39.         
    C0000017  OBJROW    43.            R0000005   -19.       
    C0000017  R0000006  23.            R0000007  28.         
    C0000017  R0000008  11.            R0000009  23.         
    C0000017  R0000010  22.            R0000011  50.         
    C0000017  R0000012  23.            R0000013   -11.       
    C0000017  R0000014  7.          
    C0000018  OBJROW    27.            R0000000   -39.       
    C0000018  R0000001   -2.           R0000002  39.         
    C0000018  R0000003   -43.          R0000005  15.         
    C0000018  R0000007   -26.          R0000008   -43.       
    C0000018  R0000009  23.            R0000010   -19.       
    C0000018  R0000012   -5.           R0000014   -44.       
    C0000019  OBJROW     -24.          R0000000  32.         
    C0000019  R0000002   -31.          R0000003   -14.       
    C0000019  R0000004  36.            R0000005   -5.        
    C0000019  R0000006  33.            R0000007   -1.        
    C0000019  R0000013   -6.        
    C0000020  OBJROW    23.            R0000000   -46.       
    C0000020  R0000002   -18.          R0000003  14.         
    C0000020  R0000006  42.            R0000007   -20.       
    C0000020  R0000008   -10.          R0000009   -15.       
    C0000020  R0000010  47.            R0000011  11.         
    C0000020  R0000012  20.            R0000014  41.         
    C0000021  OBJROW     -44.          R0000002  15.         
    C0000021  R0000003   -21.          R0000004   -39.       
    C0000021  R0000005  31.            R0000006  22.         
    C0000021  R0000007  30.            R0000008   -15.       
    C0000021  R0000009   -47.          R0000010   -22.       
    C0000021  R0000011  1.             R0000012  48.         
    C0000021  R0000014  39.         
    C0000022  OBJROW     -44.          R0000000   -27.       
    C0000022  R0000001   -37.          R0000002   -45.       
    C0000022  R0000004   -35.          R0000005  45.         
    C0000022  R0000006   -21.          R0000007  35.         
    C0000022  R0000008   -23.          R0000010   -11.       
    C0000022  R0000011   -49.          R0000012  1.          
    C0000022  R0000014   -21.       
    C0000023  OBJROW    17.            R0000002   -13.       
    C0000023  R0000004  15.            R0000005   -5.        
    C0000023  R0000006  20.            R0000007   -22.       
    C0000023  R0000008   -7.           R0000010  19.         
    C0000023  R0000012   -8.           R0000013  12.         
    C0000024  OBJROW     -3.           R0000000  33.         
    C0000024  R0000001  47.            R0000002  7.          
    C0000024  R0000003   -18.          R0000005  14.         
    C0000024  R0000006  7.             R0000007   -22.       
    C0000024  R0000008  18.            R0000009   -44.       
    C0000024  R0000010   -5.           R0000011   -19.       
    C0000024  R0000012  27.            R0000013  42.         
    C0000024  R0000014   -47.       
    C0000025  OBJROW    2.             R0000000  47.         
    C0000025  R0000002   -6.           R0000004   -32.       
    C0000025  R0000005   -14.          R0000006   -28.       
    C0000025  R0000007   -35.          R0000008  28.         
    C0000025  R0000009   -30.          R0000012   -36.       
    C0000025  R0000014  44.         
    C0000026  OBJROW     -28.          R0000000   -16.       
    C0000026  R0000001   -48.          R0000002   -38.       
    C0000026  R0000003   -1.           R0000005   -46.       
    C0000026  R0000006  17.            R0000007  50.         
    C0000026  R0000008  40.            R0000009   -49.       
    C0000026  R0000012   -14.          R0000013  5.          
    C0000026  R0000014  8.          
    C0000027  OBJROW     -32.          R0000000   -27.       
    C0000027  R0000002   -48.          R0000003   -44.       
    C0000027  R0000004  21.            R0000005   -10.       
    C0000027  R0000006  48.            R0000007   -16.       
    C0000027  R0000008   -2.           R0000009  10.         
    C0000027  R0000010  20.            R0000012   -41.       
    C0000027  R0000013   -45.          R0000014  33.         
    C0000028  OBJROW     -15.          R0000002   -35.       
    C0000028  R0000004  3.             R0000005   -5.        
    C0000028  R0000006   -7.           R0000007  49.         
    C0000028  R0000008  35.            R0000010   -34.       
    C0000028  R0000012   -34.          R0000013   -20.       
    C0000029  OBJROW     -31.          R0000000   -32.       
    C0000029  R0000002  32.            R0000004   -7.        
    C0000029  R0000005  12.            R0000006  36.         
    C0000029  R0000007   -10.          R0000008   -18.       
    C0000029  R0000009  47.            R0000010  4.          
    C0000029  R0000012   -11.          R0000014  6.          
RHS
    RHS       R0000000  111.           R0000001  180.        
    RHS       R0000002   -173.         R0000003   -239.      
    RHS       R0000004   -128.         R0000005   -58.       
    RHS       R0000006   -98.          R0000007  899.        
    RHS       R0000008   -27.          R0000009   -16.       
    RHS       R0000010   -323.         R0000011  114.        
    RHS       R0000012  288.           R0000013  509.        
    RHS       R0000014   -419.      
BOUNDS
 UI BOUND     C0000000  500.        
 UI BOUND     C0000001  500.        
 UI BOUND     C0000002  500.        
 UI BOUND     C0000003  500.        
 UI BOUND     C0000004  500.        
 UI BOUND     C0000005  500.        
 UI BOUND     C0000006  500.        
 UI BOUND     C0000007  500.        
 UI BOUND     C0000008  500.        
 UI BOUND     C0000009  500.        
 UI BOUND     C0000010  500.        
 UI BOUND     C0000011  500.        
 UI BOUND     C0000012  500.        
 UI BOUND     C0000013  500.        
 UI BOUND     C0000014  500.        
 UI BOUND     C0000015  500.        
 UI BOUND     C0000016  500.        
 UI BOUND     C0000017  500.        
 UI BOUND     C0000018  500.        
 UI BOUND     C0000019  500.        
 UI BOUND     C0000020  500.        
 UI BOUND     C0000021  500.        
 UI BOUND     C0000022  500.        
 UI BOUND     C0000023  500.        
 UI BOUND     C0000024  500.        
 UI BOUND     C0000025  500.        
 UI BOUND     C0000026  500.        
 UI BOUND     C0000027  500.        
 UI BOUND     C0000028  500.        
 UI BOUND     C0000029  500.        
ENDATA
