NAME          BLANK   
ROWS
 N  OBJROW
 L  R0000000
 L  R0000001
 L  R0000002
 L  R0000003
 L  R0000004
COLUMNS
    C0000000  OBJROW     -35.          R0000000  43.         
    C0000000  R0000001   -12.          R0000003  19.         
    C0000001  OBJROW    12.            R0000000   -2.        
    C0000001  R0000001  40.            R0000003   -13.       
    C0000001  R0000004  3.          
    C0000002  OBJROW    28.            R0000000  32.         
    C0000002  R0000001   -10.          R0000004   -35.       
    C0000003  OBJROW    15.            R0000000   -16.       
    C0000003  R0000001   -26.          R0000002  9.          
    C0000003  R0000003   -11.       
    C0000004  OBJROW    7.             R0000001  25.         
    C0000004  R0000002  48.            R0000003   -33.       
    C0000004  R0000004   -33.       
    C0000005  OBJROW     -14.          R0000000   -28.       
    C0000005  R0000001  3.             R0000004  29.         
    C0000006  OBJROW     -15.          R0000000  20.         
    C0000006  R0000001  8.             R0000003   -39.       
    C0000007  OBJROW    23.            R0000000   -10.       
    C0000007  R0000001  8.             R0000003  34.         
    C0000007  R0000004  22.         
    C0000008  OBJROW     -16.          R0000000   -7.        
    C0000008  R0000001  1.             R0000003   -34.       
    C0000008  R0000004   -7.        
    C0000009  OBJROW     -47.          R0000000   -35.       
    C0000009  R0000001  20.            R0000002   -6.        
    C0000009  R0000003  36.            R0000004   -42.       
RHS
    RHS       R0000000   -281.         R0000001  6.          
    RHS       R0000002  45.            R0000003  55.         
    RHS       R0000004  254.        
BOUNDS
 UI BOUND     C0000000  500.        
 UI BOUND     C0000001  500.        
 UI BOUND     C0000002  500.        
 UI BOUND     C0000003  500.        
 UI BOUND     C0000004  500.        
 UI BOUND     C0000005  500.        
 UI BOUND     C0000006  500.        
 UI BOUND     C0000007  500.        
 UI BOUND     C0000008  500.        
 UI BOUND     C0000009  500.        
ENDATA
