NAME          BLANK   
ROWS
 N  OBJROW
 L  R0000000
 L  R0000001
 L  R0000002
 L  R0000003
 L  R0000004
 L  R0000005
 L  R0000006
 L  R0000007
 L  R0000008
 L  R0000009
COLUMNS
    C0000000  OBJROW     -14.          R0000000   -38.       
    C0000000  R0000001   -50.          R0000002  15.         
    C0000000  R0000003   -44.          R0000004   -23.       
    C0000000  R0000005   -21.          R0000006   -1.        
    C0000000  R0000007  13.            R0000008   -23.       
    C0000001  OBJROW    30.            R0000000   -19.       
    C0000001  R0000002  31.            R0000003  24.         
    C0000001  R0000004  15.            R0000006  29.         
    C0000001  R0000007  24.            R0000008   -45.       
    C0000002  OBJROW     -28.          R0000000   -2.        
    C0000002  R0000001   -6.           R0000002   -12.       
    C0000002  R0000003  22.            R0000005  11.         
    C0000002  R0000006   -35.          R0000007  25.         
    C0000002  R0000008  15.            R0000009  19.         
    C0000003  OBJROW     -22.          R0000000   -11.       
    C0000003  R0000001  3.             R0000002   -44.       
    C0000003  R0000003  1.             R0000004   -48.       
    C0000003  R0000005   -4.           R0000006   -38.       
    C0000003  R0000007   -15.          R0000008   -6.        
    C0000004  OBJROW     -48.          R0000000  32.         
    C0000004  R0000001  9.             R0000003  47.         
    C0000004  R0000004  49.            R0000005  28.         
    C0000004  R0000006   -10.          R0000007  29.         
    C0000004  R0000008   -39.       
    C0000005  OBJROW     -41.          R0000000   -41.       
    C0000005  R0000001   -42.          R0000002  39.         
    C0000005  R0000003   -10.          R0000004  2.          
    C0000005  R0000005  28.            R0000006   -2.        
    C0000005  R0000007  40.            R0000009   -13.       
    C0000006  OBJROW    40.            R0000000   -46.       
    C0000006  R0000002  41.            R0000003   -49.       
    C0000006  R0000004  43.            R0000005   -12.       
    C0000006  R0000006   -2.           R0000007   -5.        
    C0000006  R0000009   -11.       
    C0000007  OBJROW     -30.          R0000000   -10.       
    C0000007  R0000001  36.            R0000003  33.         
    C0000007  R0000004  4.             R0000005  2.          
    C0000007  R0000006   -28.          R0000007  20.         
    C0000007  R0000008  47.            R0000009  16.         
    C0000008  OBJROW    12.            R0000000   -47.       
    C0000008  R0000001  21.            R0000002  44.         
    C0000008  R0000004  17.            R0000005  14.         
    C0000008  R0000006   -15.          R0000007  47.         
    C0000008  R0000008  29.            R0000009   -42.       
    C0000009  OBJROW    17.            R0000000   -35.       
    C0000009  R0000001   -49.          R0000002   -18.       
    C0000009  R0000003   -3.           R0000004  30.         
    C0000009  R0000005   -5.           R0000006  43.         
    C0000009  R0000007   -28.          R0000008  4.          
    C0000010  OBJROW     -33.          R0000000  50.         
    C0000010  R0000001  17.            R0000002  48.         
    C0000010  R0000003   -32.          R0000004  1.          
    C0000010  R0000005  33.            R0000006  5.          
    C0000010  R0000007  49.            R0000008   -31.       
    C0000011  OBJROW     -33.          R0000000  38.         
    C0000011  R0000001   -22.          R0000002   -49.       
    C0000011  R0000003   -42.          R0000004  43.         
    C0000011  R0000005  30.            R0000006  21.         
    C0000011  R0000008  8.             R0000009   -12.       
    C0000012  OBJROW     -37.          R0000000   -17.       
    C0000012  R0000001  11.            R0000002   -35.       
    C0000012  R0000003   -38.          R0000004   -28.       
    C0000012  R0000005  48.            R0000006   -40.       
    C0000012  R0000007   -8.           R0000008   -10.       
    C0000013  OBJROW     -32.          R0000000   -16.       
    C0000013  R0000001   -41.          R0000003   -31.       
    C0000013  R0000005  37.            R0000006   -35.       
    C0000013  R0000007  49.            R0000008   -34.       
    C0000014  OBJROW     -40.          R0000000  21.         
    C0000014  R0000002  15.            R0000004  42.         
    C0000014  R0000005   -19.          R0000006   -24.       
    C0000014  R0000007   -25.          R0000008   -46.       
    C0000014  R0000009  30.         
    C0000015  OBJROW     -5.           R0000000  6.          
    C0000015  R0000001   -29.          R0000002  2.          
    C0000015  R0000003  8.             R0000005  35.         
    C0000015  R0000008   -33.          R0000009  17.         
    C0000016  OBJROW    44.            R0000000  18.         
    C0000016  R0000002  13.            R0000003  42.         
    C0000016  R0000004   -46.          R0000005  12.         
    C0000016  R0000006  25.            R0000007  28.         
    C0000016  R0000008   -23.       
    C0000017  OBJROW     -26.          R0000000   -20.       
    C0000017  R0000001  25.            R0000003   -49.       
    C0000017  R0000004  38.            R0000006  5.          
    C0000017  R0000007  35.            R0000008   -16.       
    C0000017  R0000009   -46.       
    C0000018  OBJROW     -1.           R0000000  25.         
    C0000018  R0000001   -17.          R0000003  16.         
    C0000018  R0000004  22.            R0000005  30.         
    C0000018  R0000006  17.            R0000007  11.         
    C0000018  R0000008   -27.          R0000009  8.          
    C0000019  OBJROW     -29.          R0000000  45.         
    C0000019  R0000001   -37.          R0000003  27.         
    C0000019  R0000004   -44.          R0000005   -8.        
    C0000019  R0000008   -44.       
RHS
    RHS       R0000000  194.           R0000001   -476.      
    RHS       R0000002   -61.          R0000003  314.        
    RHS       R0000004  233.           R0000005  443.        
    RHS       R0000006   -97.          R0000007  315.        
    RHS       R0000008   -507.         R0000009  176.        
BOUNDS
 UI BOUND     C0000000  500.        
 UI BOUND     C0000001  500.        
 UI BOUND     C0000002  500.        
 UI BOUND     C0000003  500.        
 UI BOUND     C0000004  500.        
 UI BOUND     C0000005  500.        
 UI BOUND     C0000006  500.        
 UI BOUND     C0000007  500.        
 UI BOUND     C0000008  500.        
 UI BOUND     C0000009  500.        
 UI BOUND     C0000010  500.        
 UI BOUND     C0000011  500.        
 UI BOUND     C0000012  500.        
 UI BOUND     C0000013  500.        
 UI BOUND     C0000014  500.        
 UI BOUND     C0000015  500.        
 UI BOUND     C0000016  500.        
 UI BOUND     C0000017  500.        
 UI BOUND     C0000018  500.        
 UI BOUND     C0000019  500.        
ENDATA
