NAME          BLANK   
ROWS
 N  OBJROW
 L  R0000000
 L  R0000001
 L  R0000002
 L  R0000003
 L  R0000004
 L  R0000005
 L  R0000006
 L  R0000007
 L  R0000008
 L  R0000009
 L  R0000010
 L  R0000011
 L  R0000012
 L  R0000013
 L  R0000014
COLUMNS
    C0000000  OBJROW    23.            R0000000  10.         
    C0000000  R0000002   -50.          R0000003   -11.       
    C0000000  R0000005  49.            R0000006  33.         
    C0000000  R0000007  31.            R0000008  6.          
    C0000000  R0000009  33.            R0000010  32.         
    C0000000  R0000014  3.          
    C0000001  OBJROW    7.             R0000005  35.         
    C0000001  R0000006   -47.          R0000007   -44.       
    C0000001  R0000008   -23.          R0000009  43.         
    C0000001  R0000010  13.            R0000011  15.         
    C0000001  R0000012   -38.          R0000014   -10.       
    C0000002  OBJROW     -13.          R0000001   -34.       
    C0000002  R0000003   -18.          R0000007  1.          
    C0000002  R0000008   -11.          R0000009  3.          
    C0000002  R0000010   -25.          R0000012  27.         
    C0000002  R0000014  30.         
    C0000003  OBJROW    14.            R0000001   -27.       
    C0000003  R0000003  25.            R0000004  47.         
    C0000003  R0000005   -9.           R0000006   -47.       
    C0000003  R0000007  7.             R0000008  30.         
    C0000003  R0000009   -35.          R0000010   -23.       
    C0000004  OBJROW    29.            R0000000   -17.       
    C0000004  R0000002  32.            R0000003   -48.       
    C0000004  R0000005  6.             R0000006   -50.       
    C0000004  R0000007   -42.          R0000008  4.          
    C0000004  R0000009   -11.          R0000013  44.         
    C0000004  R0000014  45.         
    C0000005  OBJROW     -8.           R0000000  17.         
    C0000005  R0000001   -47.          R0000003  10.         
    C0000005  R0000005  29.            R0000006   -7.        
    C0000005  R0000007   -27.          R0000009   -15.       
    C0000005  R0000010   -40.          R0000011  25.         
    C0000005  R0000012   -13.          R0000013   -24.       
    C0000005  R0000014   -33.       
    C0000006  OBJROW    13.            R0000000  22.         
    C0000006  R0000001  25.            R0000003  12.         
    C0000006  R0000005  10.            R0000006  22.         
    C0000006  R0000008  49.            R0000009  39.         
    C0000006  R0000010  39.            R0000014  34.         
    C0000007  OBJROW     -25.          R0000000   -41.       
    C0000007  R0000003   -25.          R0000005  14.         
    C0000007  R0000006  7.             R0000007   -2.        
    C0000007  R0000008  9.             R0000010  35.         
    C0000007  R0000011   -36.          R0000014  23.         
    C0000008  OBJROW     -9.           R0000001  16.         
    C0000008  R0000003  46.            R0000004   -11.       
    C0000008  R0000005  37.            R0000006   -19.       
    C0000008  R0000007  40.            R0000008   -6.        
    C0000008  R0000011  6.             R0000012   -48.       
    C0000009  OBJROW     -22.          R0000001   -12.       
    C0000009  R0000005   -33.          R0000006   -22.       
    C0000009  R0000007   -7.           R0000009  15.         
    C0000009  R0000010  38.            R0000011  17.         
    C0000009  R0000013   -24.          R0000014   -14.       
    C0000010  OBJROW     -24.          R0000001   -1.        
    C0000010  R0000002  5.             R0000003  41.         
    C0000010  R0000004  49.            R0000005  16.         
    C0000010  R0000006  28.            R0000009   -23.       
    C0000010  R0000010  50.            R0000011   -36.       
    C0000010  R0000012   -17.          R0000013  47.         
    C0000010  R0000014   -29.       
    C0000011  OBJROW     -3.           R0000001   -49.       
    C0000011  R0000002  9.             R0000005   -17.       
    C0000011  R0000006   -49.          R0000007   -26.       
    C0000011  R0000008  29.            R0000009  44.         
    C0000011  R0000010  31.            R0000011   -19.       
    C0000011  R0000012   -12.          R0000014   -5.        
    C0000012  OBJROW    33.            R0000003  43.         
    C0000012  R0000006   -49.          R0000008  10.         
    C0000012  R0000010   -8.           R0000011  4.          
    C0000012  R0000012  3.             R0000014   -3.        
    C0000013  OBJROW     -25.          R0000000  37.         
    C0000013  R0000001   -37.          R0000003  7.          
    C0000013  R0000004   -37.          R0000005  1.          
    C0000013  R0000006  8.             R0000007   -48.       
    C0000013  R0000009  5.             R0000010  37.         
    C0000013  R0000011  19.            R0000014  45.         
    C0000014  OBJROW    15.            R0000000   -30.       
    C0000014  R0000001  45.            R0000002   -38.       
    C0000014  R0000004  41.            R0000006   -20.       
    C0000014  R0000007   -49.          R0000010   -15.       
    C0000014  R0000011   -37.          R0000012   -8.        
    C0000014  R0000014  45.         
    C0000015  OBJROW    4.             R0000001  50.         
    C0000015  R0000003   -9.           R0000005  18.         
    C0000015  R0000006   -3.           R0000007  48.         
    C0000015  R0000008   -6.           R0000009   -19.       
    C0000015  R0000010   -4.           R0000011  36.         
    C0000015  R0000014  12.         
    C0000016  OBJROW    45.            R0000000  28.         
    C0000016  R0000002  36.            R0000003  47.         
    C0000016  R0000005   -48.          R0000006  44.         
    C0000016  R0000007  42.            R0000008  35.         
    C0000016  R0000009  32.            R0000010  13.         
    C0000016  R0000011   -12.          R0000013   -33.       
    C0000017  OBJROW    30.            R0000001   -43.       
    C0000017  R0000002  9.             R0000003   -13.       
    C0000017  R0000004  29.            R0000006   -12.       
    C0000017  R0000007  10.            R0000010   -46.       
    C0000017  R0000011   -36.          R0000013   -5.        
    C0000017  R0000014  8.          
    C0000018  OBJROW     -43.          R0000002  1.          
    C0000018  R0000003  4.             R0000005   -2.        
    C0000018  R0000006  11.            R0000007   -8.        
    C0000018  R0000008  13.            R0000009  16.         
    C0000018  R0000010  14.            R0000011   -22.       
    C0000018  R0000012   -35.          R0000014   -50.       
    C0000019  OBJROW     -18.          R0000000  42.         
    C0000019  R0000001   -46.          R0000002   -41.       
    C0000019  R0000003  5.             R0000004  25.         
    C0000019  R0000005   -23.          R0000006  28.         
    C0000019  R0000007  16.            R0000009  21.         
    C0000019  R0000010  42.            R0000011  39.         
    C0000019  R0000012  14.            R0000013   -32.       
    C0000019  R0000014  49.         
RHS
    RHS       R0000000  215.           R0000001   -252.      
    RHS       R0000002   -111.         R0000003  234.        
    RHS       R0000004  239.           R0000005  43.         
    RHS       R0000006  22.            R0000007  309.        
    RHS       R0000008  197.           R0000009  309.        
    RHS       R0000010  344.           R0000011   -28.       
    RHS       R0000012   -279.         R0000013   -202.      
    RHS       R0000014  202.        
BOUNDS
 UI BOUND     C0000000  500.        
 UI BOUND     C0000001  500.        
 UI BOUND     C0000002  500.        
 UI BOUND     C0000003  500.        
 UI BOUND     C0000004  500.        
 UI BOUND     C0000005  500.        
 UI BOUND     C0000006  500.        
 UI BOUND     C0000007  500.        
 UI BOUND     C0000008  500.        
 UI BOUND     C0000009  500.        
 UI BOUND     C0000010  500.        
 UI BOUND     C0000011  500.        
 UI BOUND     C0000012  500.        
 UI BOUND     C0000013  500.        
 UI BOUND     C0000014  500.        
 UI BOUND     C0000015  500.        
 UI BOUND     C0000016  500.        
 UI BOUND     C0000017  500.        
 UI BOUND     C0000018  500.        
 UI BOUND     C0000019  500.        
ENDATA
