NAME          BLANK   
ROWS
 N  OBJROW
 L  R0000000
 L  R0000001
 L  R0000002
 L  R0000003
 L  R0000004
 L  R0000005
 L  R0000006
 L  R0000007
 L  R0000008
 L  R0000009
 L  R0000010
 L  R0000011
 L  R0000012
 L  R0000013
 L  R0000014
COLUMNS
    C0000000  OBJROW     -12.          R0000000   -40.       
    C0000000  R0000003  6.             R0000004  23.         
    C0000000  R0000008  16.            R0000009  36.         
    C0000000  R0000011   -9.           R0000012  7.          
    C0000000  R0000013  42.            R0000014  21.         
    C0000001  OBJROW     -29.          R0000000  21.         
    C0000001  R0000001  32.            R0000002  30.         
    C0000001  R0000003  48.            R0000004  25.         
    C0000001  R0000005  44.            R0000006  27.         
    C0000001  R0000009   -18.          R0000010  36.         
    C0000001  R0000011  1.             R0000012   -36.       
    C0000001  R0000013  29.         
    C0000002  OBJROW    37.            R0000000  7.          
    C0000002  R0000001  28.            R0000002   -46.       
    C0000002  R0000003  16.            R0000004   -25.       
    C0000002  R0000005   -25.          R0000006   -3.        
    C0000002  R0000008   -49.          R0000011   -43.       
    C0000002  R0000012  25.            R0000013   -13.       
    C0000003  OBJROW    23.            R0000000   -39.       
    C0000003  R0000001  28.            R0000002   -21.       
    C0000003  R0000003   -1.           R0000004  4.          
    C0000003  R0000005  50.            R0000006  11.         
    C0000003  R0000007  26.            R0000008  28.         
    C0000003  R0000009  32.            R0000010   -18.       
    C0000003  R0000011   -20.          R0000013  46.         
    C0000003  R0000014  23.         
    C0000004  OBJROW    44.            R0000000   -8.        
    C0000004  R0000001   -39.          R0000002   -31.       
    C0000004  R0000003  20.            R0000004   -13.       
    C0000004  R0000005  38.            R0000008  49.         
    C0000004  R0000012   -30.          R0000013  43.         
    C0000004  R0000014  13.         
    C0000005  OBJROW     -24.          R0000000  48.         
    C0000005  R0000001   -21.          R0000002  33.         
    C0000005  R0000003  10.            R0000004   -46.       
    C0000005  R0000005  33.            R0000010   -4.        
    C0000005  R0000011   -25.          R0000012   -49.       
    C0000005  R0000013   -28.       
    C0000006  OBJROW    23.            R0000000  30.         
    C0000006  R0000002   -25.          R0000003  40.         
    C0000006  R0000004  8.             R0000005   -33.       
    C0000006  R0000006  34.            R0000008   -1.        
    C0000006  R0000010   -40.          R0000011  44.         
    C0000006  R0000012   -50.          R0000013   -19.       
    C0000007  OBJROW    19.            R0000000  48.         
    C0000007  R0000001   -36.          R0000002   -7.        
    C0000007  R0000003   -29.          R0000004  37.         
    C0000007  R0000006  28.            R0000009   -32.       
    C0000007  R0000011  44.            R0000012  46.         
    C0000007  R0000014   -6.        
    C0000008  OBJROW     -36.          R0000002   -24.       
    C0000008  R0000003   -19.          R0000004   -42.       
    C0000008  R0000005  8.             R0000006   -47.       
    C0000008  R0000007   -38.          R0000008   -12.       
    C0000008  R0000009   -22.          R0000010  5.          
    C0000008  R0000011  47.            R0000012  9.          
    C0000008  R0000013   -13.          R0000014  38.         
    C0000009  OBJROW    1.             R0000002   -16.       
    C0000009  R0000003  29.            R0000004   -24.       
    C0000009  R0000005  14.            R0000006   -8.        
    C0000009  R0000008  48.            R0000009  35.         
    C0000009  R0000011  48.            R0000012  34.         
    C0000009  R0000013   -8.        
    C0000010  OBJROW     -37.          R0000000  46.         
    C0000010  R0000001  38.            R0000002   -37.       
    C0000010  R0000003   -5.           R0000004  4.          
    C0000010  R0000005   -46.          R0000006  2.          
    C0000010  R0000010  47.            R0000011  40.         
    C0000010  R0000012   -4.        
    C0000011  OBJROW     -30.          R0000000  46.         
    C0000011  R0000001  37.            R0000002   -34.       
    C0000011  R0000003  47.            R0000004   -11.       
    C0000011  R0000005   -49.          R0000006   -27.       
    C0000011  R0000009  12.            R0000012   -50.       
    C0000011  R0000013   -8.           R0000014   -37.       
    C0000012  OBJROW     -9.           R0000001  17.         
    C0000012  R0000002  50.            R0000003   -13.       
    C0000012  R0000004   -16.          R0000005   -33.       
    C0000012  R0000011  2.             R0000012  29.         
    C0000012  R0000013   -39.       
    C0000013  OBJROW     -37.          R0000000   -15.       
    C0000013  R0000001   -42.          R0000002  33.         
    C0000013  R0000003   -36.          R0000004   -17.       
    C0000013  R0000005   -20.          R0000006   -43.       
    C0000013  R0000009  11.            R0000010  42.         
    C0000013  R0000011  29.         
    C0000014  OBJROW     -18.          R0000000   -37.       
    C0000014  R0000001   -38.          R0000002  36.         
    C0000014  R0000003  41.            R0000004   -41.       
    C0000014  R0000005  34.            R0000006   -29.       
    C0000014  R0000010   -2.           R0000011   -43.       
    C0000014  R0000012  14.         
    C0000015  OBJROW    49.            R0000000   -12.       
    C0000015  R0000001   -35.          R0000002   -40.       
    C0000015  R0000003   -38.          R0000004  3.          
    C0000015  R0000005  1.             R0000006   -24.       
    C0000015  R0000010  49.            R0000011  37.         
    C0000015  R0000012   -16.          R0000013   -41.       
    C0000015  R0000014   -37.       
    C0000016  OBJROW     -22.          R0000000   -21.       
    C0000016  R0000001  9.             R0000002  47.         
    C0000016  R0000003   -40.          R0000004  2.          
    C0000016  R0000005   -25.          R0000006   -30.       
    C0000016  R0000008  28.            R0000011   -23.       
    C0000016  R0000012  30.            R0000013  41.         
    C0000016  R0000014   -39.       
    C0000017  OBJROW     -24.          R0000000   -45.       
    C0000017  R0000001  44.            R0000002   -32.       
    C0000017  R0000003   -13.          R0000004  46.         
    C0000017  R0000005  43.            R0000006   -7.        
    C0000017  R0000007  49.            R0000008  1.          
    C0000017  R0000009  24.            R0000011   -23.       
    C0000018  OBJROW     -34.          R0000000   -42.       
    C0000018  R0000001  18.            R0000002  42.         
    C0000018  R0000004  21.            R0000005   -41.       
    C0000018  R0000006  9.             R0000007  26.         
    C0000018  R0000008   -2.           R0000010  15.         
    C0000018  R0000011  34.            R0000012  17.         
    C0000019  OBJROW    30.            R0000000   -50.       
    C0000019  R0000001   -32.          R0000002  25.         
    C0000019  R0000003  46.            R0000004   -1.        
    C0000019  R0000005   -17.          R0000006  27.         
    C0000019  R0000007  21.            R0000010   -47.       
    C0000019  R0000011  25.            R0000012  46.         
    C0000019  R0000013   -17.       
    C0000020  OBJROW     -9.           R0000000   -38.       
    C0000020  R0000001   -36.          R0000002   -10.       
    C0000020  R0000003  49.            R0000004   -9.        
    C0000020  R0000005   -11.          R0000008  15.         
    C0000020  R0000009  33.            R0000011  41.         
    C0000020  R0000012  45.            R0000013   -26.       
    C0000020  R0000014   -40.       
    C0000021  OBJROW    35.            R0000000   -18.       
    C0000021  R0000001   -16.          R0000002  46.         
    C0000021  R0000003   -31.          R0000004  33.         
    C0000021  R0000005   -17.          R0000006  49.         
    C0000021  R0000008   -25.          R0000010  7.          
    C0000021  R0000011  12.            R0000012  31.         
    C0000021  R0000013  34.         
    C0000022  OBJROW     -23.          R0000000   -18.       
    C0000022  R0000001   -7.           R0000002   -39.       
    C0000022  R0000003   -12.          R0000004   -39.       
    C0000022  R0000005   -29.          R0000006   -1.        
    C0000022  R0000007   -34.          R0000009   -12.       
    C0000022  R0000011   -26.          R0000012  5.          
    C0000022  R0000013  9.          
    C0000023  OBJROW    20.            R0000000   -44.       
    C0000023  R0000002   -31.          R0000003   -9.        
    C0000023  R0000004   -37.          R0000005   -6.        
    C0000023  R0000006  27.            R0000010   -44.       
    C0000023  R0000011   -5.           R0000012   -47.       
    C0000023  R0000014   -44.       
    C0000024  OBJROW     -28.          R0000001   -42.       
    C0000024  R0000002   -41.          R0000003  50.         
    C0000024  R0000004  41.            R0000005  20.         
    C0000024  R0000006  6.             R0000007   -38.       
    C0000024  R0000008  22.            R0000009  18.         
    C0000024  R0000011  17.            R0000012   -3.        
    C0000024  R0000013  32.            R0000014   -28.       
    C0000025  OBJROW     -11.          R0000000   -17.       
    C0000025  R0000001  39.            R0000002   -33.       
    C0000025  R0000003   -9.           R0000004   -1.        
    C0000025  R0000005   -21.          R0000006  7.          
    C0000025  R0000007   -37.          R0000009  32.         
    C0000025  R0000010   -2.           R0000011   -5.        
    C0000025  R0000012  19.            R0000013  10.         
    C0000025  R0000014  32.         
    C0000026  OBJROW    40.            R0000000   -18.       
    C0000026  R0000002   -41.          R0000003   -35.       
    C0000026  R0000004   -32.          R0000005   -26.       
    C0000026  R0000006  7.             R0000007  6.          
    C0000026  R0000011   -21.          R0000012   -4.        
    C0000026  R0000013  12.            R0000014   -42.       
    C0000027  OBJROW     -48.          R0000000   -48.       
    C0000027  R0000001  17.            R0000002   -47.       
    C0000027  R0000003   -2.           R0000004  21.         
    C0000027  R0000005   -22.          R0000006   -46.       
    C0000027  R0000008   -14.          R0000010   -31.       
    C0000027  R0000011   -22.          R0000012   -18.       
    C0000027  R0000014  31.         
    C0000028  OBJROW     -33.          R0000000  10.         
    C0000028  R0000002   -10.          R0000003   -17.       
    C0000028  R0000004   -11.          R0000005  50.         
    C0000028  R0000008  32.            R0000009   -48.       
    C0000028  R0000010  7.             R0000011  9.          
    C0000028  R0000012  16.            R0000014   -6.        
    C0000029  OBJROW     -13.          R0000000  7.          
    C0000029  R0000001  15.            R0000002  2.          
    C0000029  R0000003  28.            R0000004  4.          
    C0000029  R0000005  9.             R0000006   -26.       
    C0000029  R0000007  8.             R0000008  30.         
    C0000029  R0000011  44.            R0000012   -32.       
    C0000029  R0000013  24.         
RHS
    RHS       R0000000   -513.         R0000001   -120.      
    RHS       R0000002   -179.         R0000003   -123.      
    RHS       R0000004   -71.          R0000005   -231.      
    RHS       R0000006   -143.         R0000007  47.         
    RHS       R0000008  55.            R0000009  176.        
    RHS       R0000010  278.           R0000011  623.        
    RHS       R0000012   -12.          R0000013   -125.      
    RHS       R0000014   -223.      
BOUNDS
 UI BOUND     C0000000  500.        
 UI BOUND     C0000001  500.        
 UI BOUND     C0000002  500.        
 UI BOUND     C0000003  500.        
 UI BOUND     C0000004  500.        
 UI BOUND     C0000005  500.        
 UI BOUND     C0000006  500.        
 UI BOUND     C0000007  500.        
 UI BOUND     C0000008  500.        
 UI BOUND     C0000009  500.        
 UI BOUND     C0000010  500.        
 UI BOUND     C0000011  500.        
 UI BOUND     C0000012  500.        
 UI BOUND     C0000013  500.        
 UI BOUND     C0000014  500.        
 UI BOUND     C0000015  500.        
 UI BOUND     C0000016  500.        
 UI BOUND     C0000017  500.        
 UI BOUND     C0000018  500.        
 UI BOUND     C0000019  500.        
 UI BOUND     C0000020  500.        
 UI BOUND     C0000021  500.        
 UI BOUND     C0000022  500.        
 UI BOUND     C0000023  500.        
 UI BOUND     C0000024  500.        
 UI BOUND     C0000025  500.        
 UI BOUND     C0000026  500.        
 UI BOUND     C0000027  500.        
 UI BOUND     C0000028  500.        
 UI BOUND     C0000029  500.        
ENDATA
