NAME          BLANK   
ROWS
 N  OBJROW
 L  R0000000
 L  R0000001
 L  R0000002
 L  R0000003
 L  R0000004
 L  R0000005
 L  R0000006
 L  R0000007
 L  R0000008
 L  R0000009
COLUMNS
    C0000000  OBJROW    39.            R0000000  5.          
    C0000000  R0000001   -29.          R0000002   -2.        
    C0000000  R0000003  26.            R0000004   -27.       
    C0000000  R0000005   -12.          R0000007  12.         
    C0000000  R0000008  10.         
    C0000001  OBJROW    38.            R0000000   -33.       
    C0000001  R0000001   -20.          R0000002  14.         
    C0000001  R0000003   -42.          R0000004   -3.        
    C0000001  R0000005  5.             R0000008  31.         
    C0000002  OBJROW    18.            R0000000   -31.       
    C0000002  R0000001   -19.          R0000002  14.         
    C0000002  R0000003   -21.          R0000005  10.         
    C0000002  R0000006   -45.          R0000007   -50.       
    C0000002  R0000008  22.         
    C0000003  OBJROW     -27.          R0000000   -24.       
    C0000003  R0000001   -36.          R0000002  50.         
    C0000003  R0000003   -28.          R0000005  35.         
    C0000003  R0000006  47.            R0000007  35.         
    C0000003  R0000009   -35.       
    C0000004  OBJROW     -49.          R0000000  7.          
    C0000004  R0000002  24.            R0000003  41.         
    C0000004  R0000005  38.            R0000007   -18.       
    C0000005  OBJROW     -17.          R0000000   -44.       
    C0000005  R0000003  9.             R0000004  37.         
    C0000005  R0000005   -42.          R0000006  6.          
    C0000005  R0000007   -28.          R0000008   -41.       
    C0000006  OBJROW     -35.          R0000000  31.         
    C0000006  R0000001   -40.          R0000002   -7.        
    C0000006  R0000003  27.            R0000004   -44.       
    C0000006  R0000005  37.            R0000006  9.          
    C0000006  R0000008  49.            R0000009   -22.       
    C0000007  OBJROW    19.            R0000000  43.         
    C0000007  R0000001   -30.          R0000003   -14.       
    C0000007  R0000005   -24.          R0000007  40.         
    C0000007  R0000008  13.         
    C0000008  OBJROW    38.            R0000000   -10.       
    C0000008  R0000005  12.            R0000007   -27.       
    C0000008  R0000009  50.         
    C0000009  OBJROW     -48.          R0000000   -10.       
    C0000009  R0000001   -22.          R0000002  36.         
    C0000009  R0000004  32.            R0000005   -25.       
    C0000009  R0000006  23.            R0000008  21.         
    C0000010  OBJROW    19.            R0000000   -31.       
    C0000010  R0000003   -13.          R0000006  19.         
    C0000010  R0000007   -40.          R0000008   -11.       
    C0000010  R0000009  19.         
    C0000011  OBJROW     -4.           R0000000   -35.       
    C0000011  R0000001  29.            R0000003   -50.       
    C0000011  R0000004  1.             R0000005  6.          
    C0000011  R0000006   -16.          R0000007   -12.       
    C0000011  R0000008  37.         
    C0000012  OBJROW    49.            R0000000   -8.        
    C0000012  R0000001  36.            R0000002   -41.       
    C0000012  R0000006  50.            R0000007   -36.       
    C0000012  R0000008  49.            R0000009  16.         
    C0000013  OBJROW     -24.          R0000000  45.         
    C0000013  R0000003   -44.          R0000004  21.         
    C0000013  R0000005   -50.          R0000007  29.         
    C0000013  R0000008   -37.          R0000009  31.         
    C0000014  OBJROW    13.            R0000000  49.         
    C0000014  R0000001  38.            R0000002  21.         
    C0000014  R0000003   -37.          R0000007  16.         
    C0000014  R0000008  11.            R0000009   -40.       
    C0000015  OBJROW     -43.          R0000000  3.          
    C0000015  R0000001   -38.          R0000003   -47.       
    C0000015  R0000004  26.            R0000005   -26.       
    C0000015  R0000006  2.             R0000007   -11.       
    C0000015  R0000008  15.         
    C0000016  OBJROW    30.            R0000000  8.          
    C0000016  R0000004  45.            R0000005   -4.        
    C0000016  R0000006  37.            R0000008   -48.       
    C0000017  OBJROW    9.             R0000000   -46.       
    C0000017  R0000003   -50.          R0000004   -26.       
    C0000017  R0000006   -3.           R0000008   -14.       
    C0000017  R0000009  10.         
    C0000018  OBJROW     -7.           R0000000  34.         
    C0000018  R0000001  25.            R0000005   -30.       
    C0000018  R0000006  40.            R0000007  39.         
    C0000018  R0000008  48.            R0000009   -49.       
    C0000019  OBJROW     -39.          R0000000   -7.        
    C0000019  R0000001  6.             R0000002   -41.       
    C0000019  R0000003   -30.          R0000004   -7.        
    C0000019  R0000005  9.             R0000006  22.         
    C0000019  R0000007  22.         
RHS
    RHS       R0000000  340.           R0000001   -116.      
    RHS       R0000002  130.           R0000003   -297.      
    RHS       R0000004  108.           R0000005   -22.       
    RHS       R0000006  329.           R0000007  192.        
    RHS       R0000008   -111.         R0000009  20.         
BOUNDS
 UI BOUND     C0000000  500.        
 UI BOUND     C0000001  500.        
 UI BOUND     C0000002  500.        
 UI BOUND     C0000003  500.        
 UI BOUND     C0000004  500.        
 UI BOUND     C0000005  500.        
 UI BOUND     C0000006  500.        
 UI BOUND     C0000007  500.        
 UI BOUND     C0000008  500.        
 UI BOUND     C0000009  500.        
 UI BOUND     C0000010  500.        
 UI BOUND     C0000011  500.        
 UI BOUND     C0000012  500.        
 UI BOUND     C0000013  500.        
 UI BOUND     C0000014  500.        
 UI BOUND     C0000015  500.        
 UI BOUND     C0000016  500.        
 UI BOUND     C0000017  500.        
 UI BOUND     C0000018  500.        
 UI BOUND     C0000019  500.        
ENDATA
