NAME          BLANK   
ROWS
 N  OBJROW
 L  R0000000
 L  R0000001
 L  R0000002
 L  R0000003
 L  R0000004
COLUMNS
    C0000000  OBJROW    22.            R0000001  22.         
    C0000000  R0000003   -10.          R0000004  50.         
    C0000001  OBJROW     -40.          R0000001   -50.       
    C0000001  R0000002  33.            R0000004  44.         
    C0000002  OBJROW    3.             R0000001  17.         
    C0000002  R0000002   -37.          R0000003  50.         
    C0000002  R0000004  2.          
    C0000003  OBJROW     -36.          R0000000  4.          
    C0000003  R0000001  25.            R0000003  17.         
    C0000003  R0000004   -9.        
    C0000004  OBJROW    11.            R0000000   -5.        
    C0000004  R0000001  40.            R0000002   -46.       
    C0000004  R0000003   -25.          R0000004  43.         
    C0000005  OBJROW    44.            R0000001  44.         
    C0000005  R0000003  33.            R0000004  43.         
    C0000006  OBJROW     -22.          R0000000   -38.       
    C0000006  R0000001   -26.          R0000002   -41.       
    C0000006  R0000003   -21.          R0000004   -35.       
    C0000007  OBJROW     -22.          R0000000   -10.       
    C0000007  R0000001   -44.          R0000003  12.         
    C0000007  R0000004  12.         
    C0000008  OBJROW    26.            R0000001  33.         
    C0000008  R0000003  19.         
    C0000009  OBJROW     -7.           R0000001  10.         
    C0000009  R0000002  44.            R0000004  28.         
RHS
    RHS       R0000000   -106.         R0000001  362.        
    RHS       R0000002   -193.         R0000003  354.        
    RHS       R0000004  437.        
BOUNDS
 UI BOUND     C0000000  500.        
 UI BOUND     C0000001  500.        
 UI BOUND     C0000002  500.        
 UI BOUND     C0000003  500.        
 UI BOUND     C0000004  500.        
 UI BOUND     C0000005  500.        
 UI BOUND     C0000006  500.        
 UI BOUND     C0000007  500.        
 UI BOUND     C0000008  500.        
 UI BOUND     C0000009  500.        
ENDATA
