NAME          BLANK   
ROWS
 N  OBJROW
 L  R0000000
 L  R0000001
 L  R0000002
 L  R0000003
 L  R0000004
 L  R0000005
 L  R0000006
 L  R0000007
 L  R0000008
 L  R0000009
 L  R0000010
 L  R0000011
 L  R0000012
 L  R0000013
 L  R0000014
COLUMNS
    C0000000  OBJROW     -44.          R0000001  41.         
    C0000000  R0000003  15.            R0000004  16.         
    C0000000  R0000005   -6.           R0000006  47.         
    C0000000  R0000007   -28.          R0000009  49.         
    C0000000  R0000010  36.            R0000011   -9.        
    C0000001  OBJROW    5.             R0000000   -1.        
    C0000001  R0000001  24.            R0000002   -4.        
    C0000001  R0000003   -11.          R0000004  21.         
    C0000001  R0000005  39.            R0000007  24.         
    C0000001  R0000008  46.            R0000009   -47.       
    C0000001  R0000011  39.            R0000013   -3.        
    C0000002  OBJROW    28.            R0000000   -21.       
    C0000002  R0000001  45.            R0000002  50.         
    C0000002  R0000003  10.            R0000004  40.         
    C0000002  R0000006   -3.           R0000007   -31.       
    C0000002  R0000009  42.            R0000010  33.         
    C0000002  R0000011   -14.          R0000012  7.          
    C0000002  R0000013  16.            R0000014   -47.       
    C0000003  OBJROW     -15.          R0000000  30.         
    C0000003  R0000001   -8.           R0000003  39.         
    C0000003  R0000005   -15.          R0000006  28.         
    C0000003  R0000007   -4.           R0000008  7.          
    C0000003  R0000009  12.            R0000010   -1.        
    C0000003  R0000011  16.            R0000013   -6.        
    C0000004  OBJROW    2.             R0000000  18.         
    C0000004  R0000002   -43.          R0000003   -3.        
    C0000004  R0000005   -19.          R0000006  41.         
    C0000004  R0000007   -33.          R0000008  40.         
    C0000004  R0000009  16.            R0000010   -14.       
    C0000004  R0000011   -26.          R0000012   -50.       
    C0000004  R0000013   -8.           R0000014   -37.       
    C0000005  OBJROW    21.            R0000000   -48.       
    C0000005  R0000001   -48.          R0000002  39.         
    C0000005  R0000003  33.            R0000004   -40.       
    C0000005  R0000006   -14.          R0000008   -6.        
    C0000005  R0000009  17.            R0000010   -39.       
    C0000005  R0000011   -19.          R0000013  36.         
    C0000005  R0000014  45.         
    C0000006  OBJROW    20.            R0000000   -19.       
    C0000006  R0000005   -45.          R0000006  9.          
    C0000006  R0000007  37.            R0000008   -26.       
    C0000006  R0000011   -46.          R0000012  35.         
    C0000006  R0000013   -25.       
    C0000007  OBJROW    15.            R0000000  25.         
    C0000007  R0000001   -43.          R0000002   -3.        
    C0000007  R0000003  22.            R0000004   -13.       
    C0000007  R0000006   -2.           R0000007   -34.       
    C0000007  R0000008  39.            R0000009  37.         
    C0000007  R0000010   -18.          R0000012  21.         
    C0000008  OBJROW     -23.          R0000000   -48.       
    C0000008  R0000001  38.            R0000002   -18.       
    C0000008  R0000005   -33.          R0000006  20.         
    C0000008  R0000007  13.            R0000008  29.         
    C0000008  R0000011   -14.          R0000013   -11.       
    C0000009  OBJROW     -35.          R0000000   -15.       
    C0000009  R0000001  23.            R0000002  28.         
    C0000009  R0000003   -47.          R0000004   -38.       
    C0000009  R0000005   -13.          R0000006   -2.        
    C0000009  R0000007   -11.          R0000008  7.          
    C0000009  R0000009  3.             R0000011   -32.       
    C0000009  R0000012  24.            R0000013  16.         
    C0000010  OBJROW     -32.          R0000001  40.         
    C0000010  R0000002  17.            R0000003   -34.       
    C0000010  R0000006  20.            R0000007  6.          
    C0000010  R0000008   -47.          R0000009  17.         
    C0000010  R0000010   -25.          R0000011   -39.       
    C0000010  R0000013   -43.          R0000014   -34.       
    C0000011  OBJROW    26.            R0000000  33.         
    C0000011  R0000001   -22.          R0000002  50.         
    C0000011  R0000004  15.            R0000006  1.          
    C0000011  R0000007   -16.          R0000008  39.         
    C0000011  R0000011  45.            R0000013   -22.       
    C0000012  OBJROW     -30.          R0000000  47.         
    C0000012  R0000001  41.            R0000002  6.          
    C0000012  R0000003   -20.          R0000004  35.         
    C0000012  R0000006   -37.          R0000007  28.         
    C0000012  R0000008  2.             R0000009  12.         
    C0000012  R0000010  8.             R0000012  37.         
    C0000012  R0000013  2.          
    C0000013  OBJROW    4.             R0000000  31.         
    C0000013  R0000001   -50.          R0000003   -42.       
    C0000013  R0000004   -11.          R0000006  46.         
    C0000013  R0000007  5.             R0000008  39.         
    C0000013  R0000011  13.            R0000013   -20.       
    C0000013  R0000014  41.         
    C0000014  OBJROW    49.            R0000001   -9.        
    C0000014  R0000003   -14.          R0000005  20.         
    C0000014  R0000006   -6.           R0000007  9.          
    C0000014  R0000008   -46.          R0000009  35.         
    C0000014  R0000011  41.            R0000012   -1.        
    C0000014  R0000013   -48.          R0000014  11.         
    C0000015  OBJROW    1.             R0000000  39.         
    C0000015  R0000001  8.             R0000002   -2.        
    C0000015  R0000003   -15.          R0000004  26.         
    C0000015  R0000005  49.            R0000006  38.         
    C0000015  R0000007   -38.          R0000008  50.         
    C0000015  R0000009  41.            R0000011   -37.       
    C0000015  R0000013   -17.          R0000014  29.         
    C0000016  OBJROW     -36.          R0000001   -3.        
    C0000016  R0000002  30.            R0000004  46.         
    C0000016  R0000006  24.            R0000007  45.         
    C0000016  R0000008   -26.          R0000011  8.          
    C0000016  R0000012   -36.          R0000013  49.         
    C0000017  OBJROW     -45.          R0000000   -11.       
    C0000017  R0000003  35.            R0000004  9.          
    C0000017  R0000005   -13.          R0000006  29.         
    C0000017  R0000007   -27.          R0000008   -33.       
    C0000017  R0000011  38.            R0000013   -50.       
    C0000017  R0000014   -15.       
    C0000018  OBJROW     -49.          R0000001  42.         
    C0000018  R0000004   -40.          R0000005   -42.       
    C0000018  R0000006  20.            R0000007   -17.       
    C0000018  R0000008   -40.          R0000011  46.         
    C0000018  R0000012  34.            R0000013   -14.       
    C0000019  OBJROW     -16.          R0000001   -26.       
    C0000019  R0000003  1.             R0000004   -40.       
    C0000019  R0000006  26.            R0000007   -10.       
    C0000019  R0000008   -37.          R0000009   -38.       
    C0000019  R0000011   -49.          R0000013   -11.       
    C0000019  R0000014  42.         
RHS
    RHS       R0000000  293.           R0000001  223.        
    RHS       R0000002  405.           R0000003   -48.       
    RHS       R0000004  227.           R0000005   -85.       
    RHS       R0000006  321.           R0000007   -10.       
    RHS       R0000008  79.            R0000009  439.        
    RHS       R0000010   -18.          R0000011   -42.       
    RHS       R0000012  174.           R0000013   -120.      
    RHS       R0000014   -191.      
BOUNDS
 UI BOUND     C0000000  500.        
 UI BOUND     C0000001  500.        
 UI BOUND     C0000002  500.        
 UI BOUND     C0000003  500.        
 UI BOUND     C0000004  500.        
 UI BOUND     C0000005  500.        
 UI BOUND     C0000006  500.        
 UI BOUND     C0000007  500.        
 UI BOUND     C0000008  500.        
 UI BOUND     C0000009  500.        
 UI BOUND     C0000010  500.        
 UI BOUND     C0000011  500.        
 UI BOUND     C0000012  500.        
 UI BOUND     C0000013  500.        
 UI BOUND     C0000014  500.        
 UI BOUND     C0000015  500.        
 UI BOUND     C0000016  500.        
 UI BOUND     C0000017  500.        
 UI BOUND     C0000018  500.        
 UI BOUND     C0000019  500.        
ENDATA
