NAME          BLANK   
ROWS
 N  OBJROW
 L  R0000000
 L  R0000001
 L  R0000002
 L  R0000003
 L  R0000004
 L  R0000005
 L  R0000006
 L  R0000007
 L  R0000008
 L  R0000009
COLUMNS
    C0000000  OBJROW     -21.          R0000000  25.         
    C0000000  R0000001  27.            R0000002  36.         
    C0000000  R0000003   -16.          R0000004   -28.       
    C0000000  R0000005  3.             R0000007   -23.       
    C0000001  OBJROW    33.            R0000000  13.         
    C0000001  R0000001  17.            R0000002   -34.       
    C0000001  R0000003   -39.          R0000004  13.         
    C0000001  R0000006   -8.           R0000009   -32.       
    C0000002  OBJROW     -30.          R0000000  12.         
    C0000002  R0000001   -50.          R0000002  21.         
    C0000002  R0000003  14.            R0000004  16.         
    C0000002  R0000007   -16.          R0000008  43.         
    C0000002  R0000009  28.         
    C0000003  OBJROW    47.            R0000000   -48.       
    C0000003  R0000002   -3.           R0000003  13.         
    C0000003  R0000004  46.            R0000005  23.         
    C0000003  R0000008   -14.          R0000009  42.         
    C0000004  OBJROW     -38.          R0000000   -23.       
    C0000004  R0000001  48.            R0000002  47.         
    C0000004  R0000003  15.            R0000004  44.         
    C0000004  R0000005   -20.          R0000007   -40.       
    C0000005  OBJROW    31.            R0000000   -5.        
    C0000005  R0000001  40.            R0000002  7.          
    C0000005  R0000003  31.            R0000005  43.         
    C0000005  R0000009  15.         
    C0000006  OBJROW    17.            R0000000  29.         
    C0000006  R0000001   -14.          R0000002  2.          
    C0000006  R0000003  30.            R0000004   -22.       
    C0000006  R0000008  1.             R0000009  14.         
    C0000007  OBJROW    33.            R0000000  42.         
    C0000007  R0000003  4.             R0000004  28.         
    C0000007  R0000005  1.             R0000006  22.         
    C0000007  R0000007   -37.       
    C0000008  OBJROW    10.            R0000001   -6.        
    C0000008  R0000002   -15.          R0000004  40.         
    C0000009  OBJROW    10.            R0000000  14.         
    C0000009  R0000001   -32.          R0000002  13.         
    C0000009  R0000003   -7.           R0000004  26.         
    C0000009  R0000005   -49.          R0000008  46.         
    C0000010  OBJROW    14.            R0000000  49.         
    C0000010  R0000001  28.            R0000002   -46.       
    C0000010  R0000003   -21.          R0000004   -49.       
    C0000010  R0000005   -13.          R0000007  48.         
    C0000010  R0000009  5.          
    C0000011  OBJROW    8.             R0000000   -23.       
    C0000011  R0000001   -3.           R0000003   -26.       
    C0000011  R0000004   -19.          R0000005   -40.       
    C0000011  R0000006  13.            R0000008  1.          
    C0000011  R0000009  16.         
    C0000012  OBJROW     -16.          R0000001  20.         
    C0000012  R0000002  22.            R0000003   -50.       
    C0000012  R0000004   -36.          R0000006   -29.       
    C0000013  OBJROW     -39.          R0000000   -5.        
    C0000013  R0000001   -19.          R0000003   -8.        
    C0000013  R0000004  47.            R0000005  48.         
    C0000013  R0000006  48.            R0000009   -48.       
    C0000014  OBJROW    44.            R0000000   -23.       
    C0000014  R0000001  20.            R0000002  3.          
    C0000014  R0000003  8.             R0000004  27.         
    C0000014  R0000006   -19.          R0000008   -12.       
    C0000014  R0000009  38.         
    C0000015  OBJROW     -20.          R0000000  16.         
    C0000015  R0000001   -22.          R0000002   -4.        
    C0000015  R0000003  42.            R0000004  25.         
    C0000015  R0000005  13.            R0000006   -28.       
    C0000015  R0000008  47.            R0000009   -32.       
    C0000016  OBJROW    46.            R0000001   -46.       
    C0000016  R0000002  49.            R0000003   -48.       
    C0000016  R0000004   -20.          R0000008  39.         
    C0000017  OBJROW    29.            R0000000   -44.       
    C0000017  R0000002  39.            R0000003   -5.        
    C0000017  R0000004  10.            R0000005   -39.       
    C0000017  R0000006  45.            R0000007   -15.       
    C0000017  R0000008   -6.           R0000009  17.         
    C0000018  OBJROW     -29.          R0000000   -25.       
    C0000018  R0000001  12.            R0000002  8.          
    C0000018  R0000004  19.            R0000005   -6.        
    C0000018  R0000006  28.            R0000007  48.         
    C0000018  R0000008  30.         
    C0000019  OBJROW    8.             R0000000   -46.       
    C0000019  R0000001  35.            R0000003  34.         
    C0000019  R0000004   -34.          R0000006   -4.        
    C0000020  OBJROW     -22.          R0000000  32.         
    C0000020  R0000001  50.            R0000002  38.         
    C0000020  R0000003  41.            R0000004   -25.       
    C0000020  R0000006  14.         
    C0000021  OBJROW     -27.          R0000000  3.          
    C0000021  R0000003   -28.       
    C0000022  OBJROW     -40.          R0000000   -13.       
    C0000022  R0000001  47.            R0000002   -26.       
    C0000022  R0000003   -15.          R0000004  15.         
    C0000022  R0000005   -27.          R0000007   -12.       
    C0000022  R0000008  42.         
    C0000023  OBJROW    45.            R0000000   -32.       
    C0000023  R0000002   -7.           R0000004  32.         
    C0000023  R0000005   -17.          R0000006  37.         
    C0000023  R0000007   -22.          R0000008   -6.        
    C0000024  OBJROW     -45.          R0000000   -41.       
    C0000024  R0000001  21.            R0000002  10.         
    C0000024  R0000003  14.            R0000004  50.         
    C0000024  R0000005   -2.           R0000006   -3.        
    C0000024  R0000007  32.            R0000008   -12.       
    C0000024  R0000009  21.         
    C0000025  OBJROW    48.            R0000000   -36.       
    C0000025  R0000001  48.            R0000002  48.         
    C0000025  R0000003   -3.           R0000004  31.         
    C0000025  R0000005  41.            R0000007   -8.        
    C0000025  R0000009  15.         
    C0000026  OBJROW    38.            R0000002  14.         
    C0000026  R0000003  38.            R0000004   -7.        
    C0000026  R0000005  18.            R0000006  17.         
    C0000026  R0000007  25.         
    C0000027  OBJROW     -29.          R0000001   -17.       
    C0000027  R0000003  5.             R0000004   -32.       
    C0000028  OBJROW    24.            R0000000   -12.       
    C0000028  R0000001  23.            R0000003   -30.       
    C0000028  R0000004  48.            R0000006   -23.       
    C0000028  R0000007  6.             R0000008  10.         
    C0000029  OBJROW     -27.          R0000000   -34.       
    C0000029  R0000001  30.            R0000002  20.         
    C0000029  R0000003   -16.          R0000004  29.         
    C0000029  R0000005  42.            R0000008  7.          
RHS
    RHS       R0000000  197.           R0000001  484.        
    RHS       R0000002  239.           R0000003   -110.      
    RHS       R0000004  35.            R0000005  186.        
    RHS       R0000006  96.            R0000007  188.        
    RHS       R0000008  216.           R0000009  199.        
BOUNDS
 UI BOUND     C0000000  500.        
 UI BOUND     C0000001  500.        
 UI BOUND     C0000002  500.        
 UI BOUND     C0000003  500.        
 UI BOUND     C0000004  500.        
 UI BOUND     C0000005  500.        
 UI BOUND     C0000006  500.        
 UI BOUND     C0000007  500.        
 UI BOUND     C0000008  500.        
 UI BOUND     C0000009  500.        
 UI BOUND     C0000010  500.        
 UI BOUND     C0000011  500.        
 UI BOUND     C0000012  500.        
 UI BOUND     C0000013  500.        
 UI BOUND     C0000014  500.        
 UI BOUND     C0000015  500.        
 UI BOUND     C0000016  500.        
 UI BOUND     C0000017  500.        
 UI BOUND     C0000018  500.        
 UI BOUND     C0000019  500.        
 UI BOUND     C0000020  500.        
 UI BOUND     C0000021  500.        
 UI BOUND     C0000022  500.        
 UI BOUND     C0000023  500.        
 UI BOUND     C0000024  500.        
 UI BOUND     C0000025  500.        
 UI BOUND     C0000026  500.        
 UI BOUND     C0000027  500.        
 UI BOUND     C0000028  500.        
 UI BOUND     C0000029  500.        
ENDATA
