NAME          BLANK   
ROWS
 N  OBJROW
 L  R0000000
 L  R0000001
 L  R0000002
 L  R0000003
 L  R0000004
 L  R0000005
 L  R0000006
 L  R0000007
 L  R0000008
 L  R0000009
 L  R0000010
 L  R0000011
 L  R0000012
 L  R0000013
 L  R0000014
COLUMNS
    C0000000  OBJROW    2.             R0000001  14.         
    C0000000  R0000004   -10.          R0000005   -6.        
    C0000000  R0000006  42.            R0000007  43.         
    C0000000  R0000009   -6.           R0000010  3.          
    C0000000  R0000011  35.            R0000014   -17.       
    C0000001  OBJROW    25.            R0000000   -29.       
    C0000001  R0000001  26.            R0000002   -9.        
    C0000001  R0000003  44.            R0000004   -43.       
    C0000001  R0000005   -21.          R0000007   -14.       
    C0000001  R0000008   -4.           R0000009   -27.       
    C0000001  R0000010   -40.          R0000011  17.         
    C0000001  R0000012   -27.          R0000014   -23.       
    C0000002  OBJROW     -44.          R0000000  20.         
    C0000002  R0000004  42.            R0000006  14.         
    C0000002  R0000007   -30.          R0000008  29.         
    C0000002  R0000009  12.            R0000010   -8.        
    C0000002  R0000012   -45.          R0000013  47.         
    C0000002  R0000014  11.         
    C0000003  OBJROW    31.            R0000000  9.          
    C0000003  R0000002  22.            R0000003  29.         
    C0000003  R0000004   -23.          R0000005  32.         
    C0000003  R0000006   -9.           R0000007  33.         
    C0000003  R0000008   -8.           R0000009   -24.       
    C0000003  R0000010   -7.           R0000011   -6.        
    C0000003  R0000014   -27.       
    C0000004  OBJROW     -49.          R0000000   -3.        
    C0000004  R0000001   -7.           R0000002   -20.       
    C0000004  R0000003   -24.          R0000004   -7.        
    C0000004  R0000005   -41.          R0000007   -43.       
    C0000004  R0000008   -40.          R0000009  4.          
    C0000004  R0000011  41.            R0000012   -32.       
    C0000004  R0000013  7.             R0000014   -9.        
    C0000005  OBJROW     -3.           R0000000  13.         
    C0000005  R0000001  44.            R0000002   -7.        
    C0000005  R0000003   -8.           R0000004  13.         
    C0000005  R0000006  30.            R0000007   -15.       
    C0000005  R0000008  8.             R0000013  26.         
    C0000005  R0000014  12.         
    C0000006  OBJROW    38.            R0000001   -44.       
    C0000006  R0000003  12.            R0000004  43.         
    C0000006  R0000005   -25.          R0000006  41.         
    C0000006  R0000007  19.            R0000008   -31.       
    C0000006  R0000009   -42.          R0000011  40.         
    C0000006  R0000012   -1.           R0000014   -44.       
    C0000007  OBJROW    42.            R0000000   -15.       
    C0000007  R0000003   -3.           R0000005   -4.        
    C0000007  R0000007  45.            R0000008  40.         
    C0000007  R0000009   -20.          R0000010  29.         
    C0000007  R0000012  10.            R0000013   -16.       
    C0000007  R0000014  1.          
    C0000008  OBJROW     -32.          R0000000   -43.       
    C0000008  R0000002   -6.           R0000003   -41.       
    C0000008  R0000004   -26.          R0000005  46.         
    C0000008  R0000007   -49.          R0000008   -6.        
    C0000008  R0000009   -22.          R0000010  10.         
    C0000008  R0000011   -2.           R0000012   -20.       
    C0000008  R0000014  25.         
    C0000009  OBJROW     -8.           R0000000  33.         
    C0000009  R0000001  22.            R0000002   -49.       
    C0000009  R0000003  45.            R0000004  50.         
    C0000009  R0000007   -26.          R0000008   -9.        
    C0000009  R0000009  16.            R0000014   -45.       
    C0000010  OBJROW     -46.          R0000000   -41.       
    C0000010  R0000001   -24.          R0000002  2.          
    C0000010  R0000003  41.            R0000004  38.         
    C0000010  R0000005  4.             R0000007  17.         
    C0000010  R0000008   -20.          R0000009   -43.       
    C0000010  R0000010  11.            R0000011   -10.       
    C0000010  R0000014  28.         
    C0000011  OBJROW    37.            R0000000   -14.       
    C0000011  R0000001   -6.           R0000002   -40.       
    C0000011  R0000003   -42.          R0000004  42.         
    C0000011  R0000007  40.            R0000008  37.         
    C0000011  R0000009  42.            R0000010   -18.       
    C0000011  R0000011   -40.          R0000014  39.         
    C0000012  OBJROW     -4.           R0000002   -36.       
    C0000012  R0000003   -5.           R0000006  30.         
    C0000012  R0000007  2.             R0000008   -8.        
    C0000012  R0000009  37.            R0000011  20.         
    C0000012  R0000013  28.         
    C0000013  OBJROW     -30.          R0000000   -12.       
    C0000013  R0000001  32.            R0000002  35.         
    C0000013  R0000003  24.            R0000004  2.          
    C0000013  R0000005   -20.          R0000006   -32.       
    C0000013  R0000007  48.            R0000008  33.         
    C0000013  R0000009   -45.          R0000010   -45.       
    C0000013  R0000013   -15.       
    C0000014  OBJROW     -41.          R0000000   -9.        
    C0000014  R0000001  28.            R0000002  10.         
    C0000014  R0000003  36.            R0000004   -44.       
    C0000014  R0000006  5.             R0000007  41.         
    C0000014  R0000008  11.            R0000009   -48.       
    C0000014  R0000010   -36.          R0000014   -4.        
    C0000015  OBJROW    4.             R0000000  31.         
    C0000015  R0000003  19.            R0000005  42.         
    C0000015  R0000007  5.             R0000008   -45.       
    C0000015  R0000009  19.            R0000010  8.          
    C0000015  R0000011   -38.          R0000013   -44.       
    C0000015  R0000014  16.         
    C0000016  OBJROW     -30.          R0000000   -5.        
    C0000016  R0000001  48.            R0000003   -6.        
    C0000016  R0000004  49.            R0000007   -14.       
    C0000016  R0000009  3.             R0000014  38.         
    C0000017  OBJROW     -38.          R0000000  1.          
    C0000017  R0000001  13.            R0000003  6.          
    C0000017  R0000006   -2.           R0000007  50.         
    C0000017  R0000008  1.             R0000009   -34.       
    C0000017  R0000010  24.            R0000011   -26.       
    C0000017  R0000014   -8.        
    C0000018  OBJROW    2.             R0000000   -39.       
    C0000018  R0000002  1.             R0000003   -41.       
    C0000018  R0000004  19.            R0000006  17.         
    C0000018  R0000007  32.            R0000008   -47.       
    C0000018  R0000009   -48.          R0000010  47.         
    C0000018  R0000012   -19.          R0000013   -28.       
    C0000018  R0000014  45.         
    C0000019  OBJROW    3.             R0000000   -16.       
    C0000019  R0000002  49.            R0000003  32.         
    C0000019  R0000004   -6.           R0000005  25.         
    C0000019  R0000007   -3.           R0000008  32.         
    C0000019  R0000009  36.            R0000010  16.         
    C0000019  R0000013  13.            R0000014  31.         
RHS
    RHS       R0000000   -62.          R0000001  44.         
    RHS       R0000002   -260.         R0000003  258.        
    RHS       R0000004  375.           R0000005   -63.       
    RHS       R0000006  613.           R0000007  896.        
    RHS       R0000008   -110.         R0000009   -551.      
    RHS       R0000010  96.            R0000011  243.        
    RHS       R0000012   -177.         R0000013  137.        
    RHS       R0000014   -293.      
BOUNDS
 UI BOUND     C0000000  500.        
 UI BOUND     C0000001  500.        
 UI BOUND     C0000002  500.        
 UI BOUND     C0000003  500.        
 UI BOUND     C0000004  500.        
 UI BOUND     C0000005  500.        
 UI BOUND     C0000006  500.        
 UI BOUND     C0000007  500.        
 UI BOUND     C0000008  500.        
 UI BOUND     C0000009  500.        
 UI BOUND     C0000010  500.        
 UI BOUND     C0000011  500.        
 UI BOUND     C0000012  500.        
 UI BOUND     C0000013  500.        
 UI BOUND     C0000014  500.        
 UI BOUND     C0000015  500.        
 UI BOUND     C0000016  500.        
 UI BOUND     C0000017  500.        
 UI BOUND     C0000018  500.        
 UI BOUND     C0000019  500.        
ENDATA
