NAME          BLANK   
ROWS
 N  OBJROW
 L  R0000000
 L  R0000001
 L  R0000002
 L  R0000003
 L  R0000004
 L  R0000005
 L  R0000006
 L  R0000007
 L  R0000008
 L  R0000009
 L  R0000010
 L  R0000011
 L  R0000012
 L  R0000013
 L  R0000014
COLUMNS
    C0000000  OBJROW     -28.          R0000000  34.         
    C0000000  R0000001   -8.           R0000002  12.         
    C0000000  R0000003  41.            R0000004   -37.       
    C0000000  R0000006   -45.          R0000008  31.         
    C0000000  R0000009  49.            R0000011  12.         
    C0000001  OBJROW     -45.          R0000004   -1.        
    C0000001  R0000006  17.            R0000007  3.          
    C0000001  R0000008  2.             R0000009   -10.       
    C0000001  R0000010  31.            R0000011   -31.       
    C0000001  R0000012  27.            R0000013   -2.        
    C0000001  R0000014   -11.       
    C0000002  OBJROW     -49.          R0000000   -15.       
    C0000002  R0000002  27.            R0000003   -22.       
    C0000002  R0000004   -5.           R0000005  27.         
    C0000002  R0000006  16.            R0000007  15.         
    C0000002  R0000008  11.            R0000009   -19.       
    C0000002  R0000011  19.            R0000012  5.          
    C0000002  R0000013  5.             R0000014   -28.       
    C0000003  OBJROW    4.             R0000000   -5.        
    C0000003  R0000001   -42.          R0000002  25.         
    C0000003  R0000003  44.            R0000004  32.         
    C0000003  R0000006  24.            R0000007  4.          
    C0000003  R0000008  30.            R0000009   -15.       
    C0000003  R0000011   -14.          R0000012  42.         
    C0000003  R0000013   -16.       
    C0000004  OBJROW     -40.          R0000000   -26.       
    C0000004  R0000001   -7.           R0000002  46.         
    C0000004  R0000004  46.            R0000005  13.         
    C0000004  R0000006   -25.          R0000008   -6.        
    C0000004  R0000009  44.            R0000010   -6.        
    C0000004  R0000011   -11.          R0000013  32.         
    C0000004  R0000014  33.         
    C0000005  OBJROW     -7.           R0000000   -10.       
    C0000005  R0000002   -47.          R0000003   -9.        
    C0000005  R0000006  5.             R0000008  24.         
    C0000005  R0000009   -20.          R0000011   -50.       
    C0000005  R0000013   -39.          R0000014  19.         
    C0000006  OBJROW     -12.          R0000000   -34.       
    C0000006  R0000002   -30.          R0000003  9.          
    C0000006  R0000004   -15.          R0000005   -46.       
    C0000006  R0000007   -40.          R0000008  31.         
    C0000006  R0000009   -14.          R0000011  16.         
    C0000006  R0000012  47.            R0000013   -9.        
    C0000007  OBJROW     -20.          R0000001  48.         
    C0000007  R0000002   -47.          R0000003  22.         
    C0000007  R0000004   -7.           R0000005   -29.       
    C0000007  R0000007   -15.          R0000008   -22.       
    C0000007  R0000011   -35.          R0000012  34.         
    C0000007  R0000014  22.         
    C0000008  OBJROW    36.            R0000002  3.          
    C0000008  R0000003  8.             R0000004  38.         
    C0000008  R0000005   -25.          R0000007  46.         
    C0000008  R0000008   -16.          R0000011  35.         
    C0000008  R0000013   -19.       
    C0000009  OBJROW     -46.          R0000000  28.         
    C0000009  R0000001   -16.          R0000002  39.         
    C0000009  R0000003  9.             R0000004  47.         
    C0000009  R0000006   -19.          R0000008  33.         
    C0000009  R0000010   -24.          R0000011  32.         
    C0000009  R0000013   -46.          R0000014  3.          
    C0000010  OBJROW     -9.           R0000001   -26.       
    C0000010  R0000002  7.             R0000003   -26.       
    C0000010  R0000004   -3.           R0000005   -19.       
    C0000010  R0000006  39.            R0000007  24.         
    C0000010  R0000008   -46.          R0000009  34.         
    C0000010  R0000010  41.            R0000011   -20.       
    C0000010  R0000012   -44.          R0000014   -36.       
    C0000011  OBJROW     -27.          R0000000   -43.       
    C0000011  R0000007  2.             R0000008   -48.       
    C0000011  R0000009   -11.          R0000010   -38.       
    C0000011  R0000011   -7.           R0000012   -28.       
    C0000011  R0000013   -18.       
    C0000012  OBJROW     -17.          R0000000   -30.       
    C0000012  R0000002  6.             R0000003   -40.       
    C0000012  R0000007   -8.           R0000008   -48.       
    C0000012  R0000009   -11.          R0000010   -15.       
    C0000013  OBJROW     -26.          R0000000   -10.       
    C0000013  R0000001  46.            R0000002  46.         
    C0000013  R0000003   -50.          R0000004  42.         
    C0000013  R0000007   -8.           R0000008  13.         
    C0000013  R0000009   -48.          R0000010   -45.       
    C0000013  R0000011   -21.          R0000013   -43.       
    C0000013  R0000014   -27.       
    C0000014  OBJROW    10.            R0000000   -21.       
    C0000014  R0000001  41.            R0000002  20.         
    C0000014  R0000003   -26.          R0000004   -35.       
    C0000014  R0000008  2.             R0000009  39.         
    C0000014  R0000011   -16.          R0000012  24.         
    C0000014  R0000013  36.            R0000014   -44.       
    C0000015  OBJROW     -16.          R0000000  45.         
    C0000015  R0000001   -10.          R0000002   -34.       
    C0000015  R0000003  50.            R0000007  25.         
    C0000015  R0000008   -49.          R0000011  9.          
    C0000015  R0000012  39.            R0000013  15.         
    C0000015  R0000014   -31.       
    C0000016  OBJROW     -7.           R0000001  45.         
    C0000016  R0000002   -16.          R0000003  20.         
    C0000016  R0000004  13.            R0000006  43.         
    C0000016  R0000007  11.            R0000012  13.         
    C0000016  R0000013   -22.       
    C0000017  OBJROW    40.            R0000003  12.         
    C0000017  R0000004   -46.          R0000007   -38.       
    C0000017  R0000008   -9.           R0000010  22.         
    C0000017  R0000012   -15.          R0000013   -10.       
    C0000018  OBJROW    9.             R0000002  50.         
    C0000018  R0000003   -12.          R0000004  50.         
    C0000018  R0000006  4.             R0000007   -49.       
    C0000018  R0000008   -42.          R0000009  8.          
    C0000018  R0000010  35.            R0000011   -4.        
    C0000018  R0000012   -13.          R0000013   -10.       
    C0000018  R0000014   -11.       
    C0000019  OBJROW    45.            R0000000  23.         
    C0000019  R0000001  12.            R0000002   -45.       
    C0000019  R0000003  28.            R0000004   -15.       
    C0000019  R0000007  45.            R0000008   -45.       
    C0000019  R0000011  26.            R0000012   -15.       
    C0000019  R0000013  3.          
    C0000020  OBJROW     -28.          R0000000   -32.       
    C0000020  R0000002   -44.          R0000003  20.         
    C0000020  R0000004  45.            R0000007   -10.       
    C0000020  R0000008  14.            R0000010   -1.        
    C0000020  R0000012   -41.          R0000013  42.         
    C0000021  OBJROW     -14.          R0000000   -43.       
    C0000021  R0000002  46.            R0000003   -48.       
    C0000021  R0000004  37.            R0000005   -13.       
    C0000021  R0000008  23.            R0000010   -16.       
    C0000021  R0000011   -20.          R0000013   -22.       
    C0000022  OBJROW    29.            R0000002   -45.       
    C0000022  R0000003  16.            R0000004   -5.        
    C0000022  R0000006   -36.          R0000008  10.         
    C0000022  R0000009  25.            R0000010   -23.       
    C0000022  R0000011  31.            R0000012  46.         
    C0000023  OBJROW     -29.          R0000000  48.         
    C0000023  R0000001  28.            R0000002  31.         
    C0000023  R0000003  30.            R0000004   -14.       
    C0000023  R0000006   -25.          R0000007   -1.        
    C0000023  R0000008  27.            R0000011   -20.       
    C0000023  R0000013   -24.          R0000014  39.         
    C0000024  OBJROW    43.            R0000000  27.         
    C0000024  R0000001   -11.          R0000002   -11.       
    C0000024  R0000003  42.            R0000004  34.         
    C0000024  R0000005   -14.          R0000008   -12.       
    C0000024  R0000009   -11.          R0000013  36.         
    C0000025  OBJROW     -7.           R0000000   -19.       
    C0000025  R0000001  11.            R0000002   -50.       
    C0000025  R0000003  50.            R0000004   -38.       
    C0000025  R0000007   -20.          R0000008   -41.       
    C0000025  R0000009   -47.          R0000012  38.         
    C0000025  R0000013   -27.          R0000014   -9.        
    C0000026  OBJROW     -19.          R0000000  23.         
    C0000026  R0000002   -6.           R0000003   -24.       
    C0000026  R0000004   -40.          R0000006  37.         
    C0000026  R0000007   -12.          R0000008  11.         
    C0000026  R0000010   -43.          R0000011   -43.       
    C0000026  R0000013  2.             R0000014   -29.       
    C0000027  OBJROW    33.            R0000000   -1.        
    C0000027  R0000002  2.             R0000003  43.         
    C0000027  R0000004  8.             R0000006   -18.       
    C0000027  R0000007  1.             R0000008   -16.       
    C0000027  R0000009   -42.          R0000010   -18.       
    C0000027  R0000012  29.            R0000013  6.          
    C0000027  R0000014   -40.       
    C0000028  OBJROW    33.            R0000002   -49.       
    C0000028  R0000003   -27.          R0000004  19.         
    C0000028  R0000007  15.            R0000008   -13.       
    C0000028  R0000011   -29.          R0000013  43.         
    C0000029  OBJROW    6.             R0000001   -25.       
    C0000029  R0000002   -21.          R0000005   -38.       
    C0000029  R0000006   -3.           R0000008  23.         
    C0000029  R0000010   -47.          R0000011  32.         
    C0000029  R0000012   -11.          R0000013  18.         
    C0000029  R0000014  6.          
RHS
    RHS       R0000000  684.           R0000001  52.         
    RHS       R0000002  404.           R0000003  702.        
    RHS       R0000004   -97.          R0000005   -79.       
    RHS       R0000006   -279.         R0000007   -309.      
    RHS       R0000008   -113.         R0000009   -115.      
    RHS       R0000010   -276.         R0000011   -117.      
    RHS       R0000012  365.           R0000013   -352.      
    RHS       R0000014   -465.      
BOUNDS
 UI BOUND     C0000000  500.        
 UI BOUND     C0000001  500.        
 UI BOUND     C0000002  500.        
 UI BOUND     C0000003  500.        
 UI BOUND     C0000004  500.        
 UI BOUND     C0000005  500.        
 UI BOUND     C0000006  500.        
 UI BOUND     C0000007  500.        
 UI BOUND     C0000008  500.        
 UI BOUND     C0000009  500.        
 UI BOUND     C0000010  500.        
 UI BOUND     C0000011  500.        
 UI BOUND     C0000012  500.        
 UI BOUND     C0000013  500.        
 UI BOUND     C0000014  500.        
 UI BOUND     C0000015  500.        
 UI BOUND     C0000016  500.        
 UI BOUND     C0000017  500.        
 UI BOUND     C0000018  500.        
 UI BOUND     C0000019  500.        
 UI BOUND     C0000020  500.        
 UI BOUND     C0000021  500.        
 UI BOUND     C0000022  500.        
 UI BOUND     C0000023  500.        
 UI BOUND     C0000024  500.        
 UI BOUND     C0000025  500.        
 UI BOUND     C0000026  500.        
 UI BOUND     C0000027  500.        
 UI BOUND     C0000028  500.        
 UI BOUND     C0000029  500.        
ENDATA
