NAME          BLANK   
ROWS
 N  OBJROW
 L  R0000000
 L  R0000001
 L  R0000002
 L  R0000003
 L  R0000004
COLUMNS
    C0000000  OBJROW    1.             R0000000  35.         
    C0000000  R0000001  22.         
    C0000001  OBJROW     -38.          R0000000  31.         
    C0000002  OBJROW     -23.          R0000000  35.         
    C0000002  R0000001  36.            R0000003   -3.        
    C0000003  OBJROW     -32.          R0000000   -45.       
    C0000003  R0000001   -18.          R0000002  24.         
    C0000003  R0000003   -32.       
    C0000004  OBJROW    12.            R0000000  24.         
    C0000004  R0000001  29.            R0000002  7.          
    C0000004  R0000003  31.            R0000004   -15.       
    C0000005  OBJROW     -41.          R0000001   -48.       
    C0000005  R0000004  12.         
    C0000006  OBJROW    19.            R0000001   -50.       
    C0000006  R0000002  36.            R0000003  21.         
    C0000006  R0000004  13.         
    C0000007  OBJROW     -1.           R0000001   -30.       
    C0000007  R0000002  7.          
    C0000008  OBJROW    46.            R0000000   -29.       
    C0000008  R0000001  18.            R0000002  21.         
    C0000008  R0000003  14.         
    C0000009  OBJROW     -45.          R0000000   -8.        
    C0000009  R0000001  38.         
RHS
    RHS       R0000000  307.           R0000001  89.         
    RHS       R0000002  14.            R0000003  31.         
    RHS       R0000004  9.          
BOUNDS
 UI BOUND     C0000000  500.        
 UI BOUND     C0000001  500.        
 UI BOUND     C0000002  500.        
 UI BOUND     C0000003  500.        
 UI BOUND     C0000004  500.        
 UI BOUND     C0000005  500.        
 UI BOUND     C0000006  500.        
 UI BOUND     C0000007  500.        
 UI BOUND     C0000008  500.        
 UI BOUND     C0000009  500.        
ENDATA
