NAME          BLANK   
ROWS
 N  OBJROW
 L  R0000000
 L  R0000001
 L  R0000002
 L  R0000003
 L  R0000004
 L  R0000005
 L  R0000006
 L  R0000007
 L  R0000008
 L  R0000009
COLUMNS
    C0000000  OBJROW    32.            R0000000  25.         
    C0000000  R0000001  13.            R0000002   -11.       
    C0000000  R0000003   -2.           R0000004  31.         
    C0000000  R0000005   -50.          R0000007  14.         
    C0000000  R0000008   -50.          R0000009  21.         
    C0000001  OBJROW    9.             R0000001  34.         
    C0000001  R0000002  35.            R0000003  47.         
    C0000001  R0000004   -28.          R0000005   -16.       
    C0000001  R0000006  35.            R0000007  49.         
    C0000001  R0000008   -19.          R0000009   -24.       
    C0000002  OBJROW     -13.          R0000000   -29.       
    C0000002  R0000001   -30.          R0000004   -15.       
    C0000002  R0000005  6.             R0000006  42.         
    C0000002  R0000008   -42.          R0000009   -19.       
    C0000003  OBJROW     -22.          R0000000   -35.       
    C0000003  R0000001  20.            R0000002   -6.        
    C0000003  R0000003   -5.           R0000004   -8.        
    C0000003  R0000005   -4.           R0000008   -2.        
    C0000004  OBJROW     -28.          R0000000   -24.       
    C0000004  R0000001  23.            R0000002  37.         
    C0000004  R0000003  5.             R0000004  10.         
    C0000004  R0000005  25.            R0000007  17.         
    C0000004  R0000009  25.         
    C0000005  OBJROW    25.            R0000000  25.         
    C0000005  R0000001   -45.          R0000002   -47.       
    C0000005  R0000004  24.            R0000005   -2.        
    C0000005  R0000009   -45.       
    C0000006  OBJROW     -11.          R0000001   -26.       
    C0000006  R0000002   -9.           R0000004  37.         
    C0000007  OBJROW    23.            R0000000  48.         
    C0000007  R0000001   -4.           R0000002   -3.        
    C0000007  R0000004  9.             R0000005  3.          
    C0000007  R0000007  29.            R0000008  14.         
    C0000007  R0000009   -36.       
    C0000008  OBJROW     -4.           R0000001  25.         
    C0000008  R0000002  14.            R0000004  17.         
    C0000008  R0000005  44.            R0000006   -38.       
    C0000008  R0000009   -28.       
    C0000009  OBJROW    19.            R0000001  42.         
    C0000009  R0000002  5.             R0000003  30.         
    C0000009  R0000005   -5.           R0000006  48.         
    C0000009  R0000009   -46.       
    C0000010  OBJROW    47.            R0000001   -14.       
    C0000010  R0000003   -47.          R0000004   -4.        
    C0000010  R0000005  17.            R0000008  3.          
    C0000010  R0000009   -48.       
    C0000011  OBJROW    34.            R0000000  47.         
    C0000011  R0000001  43.            R0000002  41.         
    C0000011  R0000003  42.            R0000004  32.         
    C0000011  R0000005   -45.          R0000006  43.         
    C0000011  R0000007  9.             R0000008   -20.       
    C0000011  R0000009   -49.       
    C0000012  OBJROW    10.            R0000001   -4.        
    C0000012  R0000003   -3.           R0000004   -13.       
    C0000012  R0000005  38.            R0000007  12.         
    C0000012  R0000009   -41.       
    C0000013  OBJROW    30.            R0000000  5.          
    C0000013  R0000001   -48.          R0000005  35.         
    C0000013  R0000006   -9.           R0000007  47.         
    C0000013  R0000008   -12.          R0000009   -14.       
    C0000014  OBJROW     -14.          R0000001   -40.       
    C0000014  R0000003  37.            R0000004   -2.        
    C0000014  R0000006  48.            R0000007  46.         
    C0000014  R0000008   -25.          R0000009   -29.       
    C0000015  OBJROW     -32.          R0000000   -26.       
    C0000015  R0000001   -15.          R0000007   -23.       
    C0000015  R0000009  6.          
    C0000016  OBJROW     -1.           R0000000  12.         
    C0000016  R0000001   -4.           R0000002  25.         
    C0000016  R0000004   -19.          R0000008  43.         
    C0000016  R0000009   -37.       
    C0000017  OBJROW    17.            R0000001   -10.       
    C0000017  R0000002   -11.          R0000003  35.         
    C0000017  R0000005  23.            R0000006   -46.       
    C0000017  R0000007   -49.          R0000009   -46.       
    C0000018  OBJROW     -27.          R0000000  29.         
    C0000018  R0000001  6.             R0000002   -41.       
    C0000018  R0000004  27.            R0000005  6.          
    C0000018  R0000006  42.            R0000008  24.         
    C0000018  R0000009  47.         
    C0000019  OBJROW     -34.          R0000000  10.         
    C0000019  R0000001   -29.          R0000004  40.         
    C0000019  R0000005  14.            R0000006  10.         
    C0000019  R0000008  44.            R0000009  35.         
    C0000020  OBJROW    15.            R0000001   -49.       
    C0000020  R0000003  21.            R0000004  13.         
    C0000020  R0000005   -8.           R0000007   -21.       
    C0000020  R0000009  34.         
    C0000021  OBJROW     -45.          R0000001  22.         
    C0000021  R0000002  31.            R0000004  4.          
    C0000021  R0000005   -28.          R0000006  20.         
    C0000021  R0000008  31.            R0000009  6.          
    C0000022  OBJROW    1.             R0000000  29.         
    C0000022  R0000001   -30.          R0000002   -15.       
    C0000022  R0000004  43.            R0000005  29.         
    C0000022  R0000008   -26.          R0000009  19.         
    C0000023  OBJROW    35.            R0000000  25.         
    C0000023  R0000001  16.            R0000003   -28.       
    C0000023  R0000004  8.             R0000005  40.         
    C0000023  R0000008   -17.          R0000009   -23.       
    C0000024  OBJROW    37.            R0000000  5.          
    C0000024  R0000001  10.            R0000003  27.         
    C0000024  R0000004  9.             R0000005  44.         
    C0000024  R0000007  23.            R0000009  3.          
    C0000025  OBJROW     -23.          R0000000  37.         
    C0000025  R0000001   -33.          R0000002   -17.       
    C0000025  R0000005  49.            R0000007   -6.        
    C0000025  R0000008  24.         
    C0000026  OBJROW     -15.          R0000000  9.          
    C0000026  R0000001  6.             R0000002  47.         
    C0000026  R0000004   -28.          R0000005   -30.       
    C0000026  R0000006  44.            R0000009   -4.        
    C0000027  OBJROW     -16.          R0000000  20.         
    C0000027  R0000001   -26.          R0000002  11.         
    C0000027  R0000003  12.            R0000005   -15.       
    C0000027  R0000007  46.            R0000009   -33.       
    C0000028  OBJROW    23.            R0000000  26.         
    C0000028  R0000001   -24.          R0000004   -36.       
    C0000028  R0000006  22.            R0000009   -40.       
    C0000029  OBJROW    39.            R0000000   -20.       
    C0000029  R0000001  26.            R0000004  13.         
    C0000029  R0000005   -17.          R0000007  34.         
    C0000029  R0000008   -44.          R0000009   -20.       
RHS
    RHS       R0000000  635.           R0000001   -414.      
    RHS       R0000002  170.           R0000003  451.        
    RHS       R0000004  453.           R0000005  449.        
    RHS       R0000006  8.             R0000007  215.        
    RHS       R0000008  163.           R0000009   -747.      
BOUNDS
 UI BOUND     C0000000  500.        
 UI BOUND     C0000001  500.        
 UI BOUND     C0000002  500.        
 UI BOUND     C0000003  500.        
 UI BOUND     C0000004  500.        
 UI BOUND     C0000005  500.        
 UI BOUND     C0000006  500.        
 UI BOUND     C0000007  500.        
 UI BOUND     C0000008  500.        
 UI BOUND     C0000009  500.        
 UI BOUND     C0000010  500.        
 UI BOUND     C0000011  500.        
 UI BOUND     C0000012  500.        
 UI BOUND     C0000013  500.        
 UI BOUND     C0000014  500.        
 UI BOUND     C0000015  500.        
 UI BOUND     C0000016  500.        
 UI BOUND     C0000017  500.        
 UI BOUND     C0000018  500.        
 UI BOUND     C0000019  500.        
 UI BOUND     C0000020  500.        
 UI BOUND     C0000021  500.        
 UI BOUND     C0000022  500.        
 UI BOUND     C0000023  500.        
 UI BOUND     C0000024  500.        
 UI BOUND     C0000025  500.        
 UI BOUND     C0000026  500.        
 UI BOUND     C0000027  500.        
 UI BOUND     C0000028  500.        
 UI BOUND     C0000029  500.        
ENDATA
