NAME          BLANK   
ROWS
 N  OBJROW
 L  R0000000
 L  R0000001
 L  R0000002
 L  R0000003
 L  R0000004
 L  R0000005
 L  R0000006
 L  R0000007
 L  R0000008
 L  R0000009
 L  R0000010
 L  R0000011
 L  R0000012
 L  R0000013
 L  R0000014
COLUMNS
    C0000000  OBJROW     -49.          R0000000  2.          
    C0000000  R0000001  14.            R0000002  44.         
    C0000000  R0000004   -13.          R0000005   -5.        
    C0000000  R0000006   -18.          R0000008   -44.       
    C0000000  R0000009   -40.          R0000010   -19.       
    C0000000  R0000012  39.            R0000014   -31.       
    C0000001  OBJROW     -9.           R0000000   -37.       
    C0000001  R0000001  45.            R0000004   -45.       
    C0000001  R0000005  18.            R0000006  25.         
    C0000001  R0000007  6.             R0000008   -23.       
    C0000001  R0000009  13.            R0000011   -15.       
    C0000001  R0000012  19.            R0000013   -46.       
    C0000001  R0000014  39.         
    C0000002  OBJROW     -19.          R0000000   -10.       
    C0000002  R0000001  47.            R0000002   -17.       
    C0000002  R0000003   -38.          R0000005   -36.       
    C0000002  R0000006   -46.          R0000007  48.         
    C0000002  R0000008  28.            R0000009  9.          
    C0000002  R0000012   -12.          R0000013   -21.       
    C0000002  R0000014   -48.       
    C0000003  OBJROW     -16.          R0000000   -3.        
    C0000003  R0000002  26.            R0000003  7.          
    C0000003  R0000005   -18.          R0000006  45.         
    C0000003  R0000007  31.            R0000009  12.         
    C0000003  R0000011   -17.          R0000012  26.         
    C0000003  R0000013   -29.       
    C0000004  OBJROW     -22.          R0000000  9.          
    C0000004  R0000001  30.            R0000002  40.         
    C0000004  R0000005   -9.           R0000006  44.         
    C0000004  R0000007   -2.           R0000008  24.         
    C0000004  R0000009   -35.          R0000010   -49.       
    C0000004  R0000011  9.             R0000012  20.         
    C0000004  R0000013  29.         
    C0000005  OBJROW     -37.          R0000002  23.         
    C0000005  R0000003   -20.          R0000004  9.          
    C0000005  R0000005   -46.          R0000006   -29.       
    C0000005  R0000007   -2.           R0000008   -18.       
    C0000005  R0000009  21.            R0000010   -22.       
    C0000005  R0000011  18.            R0000012   -29.       
    C0000005  R0000013   -46.          R0000014  29.         
    C0000006  OBJROW    35.            R0000000   -15.       
    C0000006  R0000003   -50.          R0000004  4.          
    C0000006  R0000005   -39.          R0000009   -36.       
    C0000006  R0000010   -15.          R0000012   -11.       
    C0000006  R0000013   -22.          R0000014   -38.       
    C0000007  OBJROW     -48.          R0000000   -41.       
    C0000007  R0000002  44.            R0000003  14.         
    C0000007  R0000004   -46.          R0000005  31.         
    C0000007  R0000006  42.            R0000007   -35.       
    C0000007  R0000008  7.             R0000009  27.         
    C0000007  R0000010   -46.          R0000011  41.         
    C0000007  R0000012   -4.           R0000014  17.         
    C0000008  OBJROW    44.            R0000001  47.         
    C0000008  R0000006   -17.          R0000007   -41.       
    C0000008  R0000008   -9.           R0000010  30.         
    C0000008  R0000011   -19.          R0000013  38.         
    C0000008  R0000014  24.         
    C0000009  OBJROW    7.             R0000000   -45.       
    C0000009  R0000002   -17.          R0000003   -37.       
    C0000009  R0000004   -22.          R0000005   -30.       
    C0000009  R0000006   -30.          R0000007  1.          
    C0000009  R0000008  36.            R0000009   -48.       
    C0000009  R0000011  40.            R0000014  2.          
    C0000010  OBJROW    12.            R0000000   -1.        
    C0000010  R0000001   -21.          R0000002   -27.       
    C0000010  R0000003   -10.          R0000004   -39.       
    C0000010  R0000007  35.            R0000008   -33.       
    C0000010  R0000009   -5.           R0000013  17.         
    C0000010  R0000014  2.          
    C0000011  OBJROW     -24.          R0000000   -46.       
    C0000011  R0000001   -39.          R0000002   -49.       
    C0000011  R0000003   -23.          R0000004   -33.       
    C0000011  R0000008   -41.          R0000010  24.         
    C0000011  R0000011  22.            R0000014   -43.       
    C0000012  OBJROW    14.            R0000000  22.         
    C0000012  R0000002  35.            R0000003   -28.       
    C0000012  R0000004  11.            R0000005   -13.       
    C0000012  R0000007  30.            R0000008  9.          
    C0000012  R0000009   -41.          R0000010  6.          
    C0000012  R0000011  12.            R0000013   -27.       
    C0000013  OBJROW    23.            R0000000   -13.       
    C0000013  R0000001  33.            R0000002  15.         
    C0000013  R0000005   -45.          R0000007   -18.       
    C0000013  R0000009   -10.          R0000011  9.          
    C0000013  R0000013  38.            R0000014   -26.       
    C0000014  OBJROW    42.            R0000000  23.         
    C0000014  R0000001  1.             R0000002   -9.        
    C0000014  R0000003  29.            R0000005   -39.       
    C0000014  R0000007   -41.          R0000008  3.          
    C0000014  R0000009   -23.          R0000011  6.          
    C0000014  R0000013  39.            R0000014  9.          
    C0000015  OBJROW     -30.          R0000000   -40.       
    C0000015  R0000002   -14.          R0000005   -39.       
    C0000015  R0000006   -1.           R0000007  16.         
    C0000015  R0000008   -33.          R0000010  2.          
    C0000015  R0000011  14.            R0000012   -2.        
    C0000015  R0000013   -12.          R0000014   -10.       
    C0000016  OBJROW     -2.           R0000000  30.         
    C0000016  R0000001  25.            R0000002  24.         
    C0000016  R0000003   -11.          R0000004  37.         
    C0000016  R0000005   -39.          R0000006   -15.       
    C0000016  R0000007  44.            R0000008   -2.        
    C0000016  R0000010  17.            R0000011   -4.        
    C0000016  R0000014   -20.       
    C0000017  OBJROW     -23.          R0000001  24.         
    C0000017  R0000003  28.            R0000004   -24.       
    C0000017  R0000005   -45.          R0000008  44.         
    C0000017  R0000009  18.            R0000010   -38.       
    C0000017  R0000011   -19.          R0000013  27.         
    C0000017  R0000014  35.         
    C0000018  OBJROW     -36.          R0000000   -18.       
    C0000018  R0000002   -41.          R0000003   -30.       
    C0000018  R0000005  32.            R0000007   -19.       
    C0000018  R0000008   -49.          R0000009  9.          
    C0000018  R0000010   -4.           R0000011  9.          
    C0000018  R0000012  27.         
    C0000019  OBJROW    25.            R0000000  50.         
    C0000019  R0000001   -7.           R0000002  35.         
    C0000019  R0000003  18.            R0000005  17.         
    C0000019  R0000007   -25.          R0000008   -42.       
    C0000019  R0000009   -30.          R0000010  29.         
    C0000019  R0000011  21.            R0000012   -48.       
    C0000019  R0000013   -19.       
    C0000020  OBJROW     -32.          R0000000   -50.       
    C0000020  R0000005   -27.          R0000006   -32.       
    C0000020  R0000007  35.            R0000008   -7.        
    C0000020  R0000009   -49.          R0000011   -47.       
    C0000020  R0000012   -9.           R0000013  25.         
    C0000020  R0000014  19.         
    C0000021  OBJROW     -43.          R0000002   -1.        
    C0000021  R0000005  43.            R0000006   -2.        
    C0000021  R0000007   -35.          R0000008  33.         
    C0000021  R0000009   -9.           R0000010   -31.       
    C0000021  R0000011  8.          
    C0000022  OBJROW    28.            R0000000  7.          
    C0000022  R0000001  18.            R0000002  48.         
    C0000022  R0000003  48.            R0000004   -37.       
    C0000022  R0000006  1.             R0000007   -25.       
    C0000022  R0000008   -23.          R0000011   -7.        
    C0000022  R0000013  11.            R0000014   -26.       
    C0000023  OBJROW    40.            R0000000   -4.        
    C0000023  R0000001   -33.          R0000002   -25.       
    C0000023  R0000003   -16.          R0000004  35.         
    C0000023  R0000005  39.            R0000006  17.         
    C0000023  R0000007   -36.          R0000008  39.         
    C0000023  R0000009  20.            R0000010  29.         
    C0000023  R0000011  8.             R0000014   -11.       
    C0000024  OBJROW    32.            R0000000  40.         
    C0000024  R0000001   -36.          R0000002   -2.        
    C0000024  R0000003  23.            R0000004   -38.       
    C0000024  R0000008   -10.          R0000009  31.         
    C0000024  R0000011  41.            R0000012  20.         
    C0000024  R0000013   -46.          R0000014  19.         
    C0000025  OBJROW     -45.          R0000000  42.         
    C0000025  R0000002  11.            R0000003   -11.       
    C0000025  R0000005   -29.          R0000007   -39.       
    C0000025  R0000008  35.            R0000009   -24.       
    C0000025  R0000011   -8.           R0000013   -33.       
    C0000025  R0000014   -38.       
    C0000026  OBJROW    36.            R0000000  44.         
    C0000026  R0000001   -40.          R0000002   -48.       
    C0000026  R0000004   -13.          R0000005   -11.       
    C0000026  R0000007   -4.           R0000008   -3.        
    C0000026  R0000010  15.            R0000011  17.         
    C0000026  R0000012  17.            R0000013   -50.       
    C0000026  R0000014   -22.       
    C0000027  OBJROW    28.            R0000000  28.         
    C0000027  R0000002  37.            R0000003  17.         
    C0000027  R0000007  40.            R0000009   -3.        
    C0000027  R0000010   -10.          R0000011   -47.       
    C0000027  R0000013   -42.       
    C0000028  OBJROW    36.            R0000000   -34.       
    C0000028  R0000002   -25.          R0000003   -33.       
    C0000028  R0000005   -9.           R0000006   -7.        
    C0000028  R0000007   -49.          R0000009   -22.       
    C0000028  R0000011   -25.          R0000012   -40.       
    C0000028  R0000013  36.            R0000014  26.         
    C0000029  OBJROW     -4.           R0000000   -40.       
    C0000029  R0000006   -34.          R0000007   -6.        
    C0000029  R0000008  13.            R0000009   -8.        
    C0000029  R0000011   -46.          R0000013   -25.       
    C0000029  R0000014  38.         
RHS
    RHS       R0000000   -318.         R0000001  275.        
    RHS       R0000002  158.           R0000003   -133.      
    RHS       R0000004   -439.         R0000005   -512.      
    RHS       R0000006   -117.         R0000007  139.        
    RHS       R0000008   -118.         R0000009   -523.      
    RHS       R0000010   -108.         R0000011  51.         
    RHS       R0000012  155.           R0000013   -265.      
    RHS       R0000014  296.        
BOUNDS
 UI BOUND     C0000000  500.        
 UI BOUND     C0000001  500.        
 UI BOUND     C0000002  500.        
 UI BOUND     C0000003  500.        
 UI BOUND     C0000004  500.        
 UI BOUND     C0000005  500.        
 UI BOUND     C0000006  500.        
 UI BOUND     C0000007  500.        
 UI BOUND     C0000008  500.        
 UI BOUND     C0000009  500.        
 UI BOUND     C0000010  500.        
 UI BOUND     C0000011  500.        
 UI BOUND     C0000012  500.        
 UI BOUND     C0000013  500.        
 UI BOUND     C0000014  500.        
 UI BOUND     C0000015  500.        
 UI BOUND     C0000016  500.        
 UI BOUND     C0000017  500.        
 UI BOUND     C0000018  500.        
 UI BOUND     C0000019  500.        
 UI BOUND     C0000020  500.        
 UI BOUND     C0000021  500.        
 UI BOUND     C0000022  500.        
 UI BOUND     C0000023  500.        
 UI BOUND     C0000024  500.        
 UI BOUND     C0000025  500.        
 UI BOUND     C0000026  500.        
 UI BOUND     C0000027  500.        
 UI BOUND     C0000028  500.        
 UI BOUND     C0000029  500.        
ENDATA
