NAME          BLANK   
ROWS
 N  OBJROW
 L  R0000000
 L  R0000001
 L  R0000002
 L  R0000003
 L  R0000004
 L  R0000005
 L  R0000006
 L  R0000007
 L  R0000008
 L  R0000009
COLUMNS
    C0000000  OBJROW     -28.          R0000000   -25.       
    C0000000  R0000001  13.            R0000002   -41.       
    C0000000  R0000003  24.            R0000005   -24.       
    C0000000  R0000006   -2.           R0000008   -28.       
    C0000000  R0000009  17.         
    C0000001  OBJROW     -20.          R0000000   -26.       
    C0000001  R0000001   -10.          R0000003  13.         
    C0000001  R0000006  16.            R0000007   -47.       
    C0000001  R0000008  41.            R0000009   -12.       
    C0000002  OBJROW     -41.          R0000000  48.         
    C0000002  R0000001  41.            R0000003  44.         
    C0000002  R0000005  10.            R0000007   -24.       
    C0000002  R0000008  30.            R0000009  6.          
    C0000003  OBJROW     -37.          R0000000   -50.       
    C0000003  R0000001   -36.          R0000003  5.          
    C0000003  R0000004  24.            R0000005   -32.       
    C0000003  R0000009  25.         
    C0000004  OBJROW     -5.           R0000000  1.          
    C0000004  R0000001   -26.          R0000002   -19.       
    C0000004  R0000003  46.            R0000005   -8.        
    C0000004  R0000007  33.            R0000008  44.         
    C0000005  OBJROW    9.             R0000002   -27.       
    C0000005  R0000003  19.            R0000004   -35.       
    C0000005  R0000005   -21.          R0000006   -16.       
    C0000005  R0000007  14.            R0000008   -27.       
    C0000006  OBJROW    8.             R0000000  37.         
    C0000006  R0000001  38.            R0000003   -4.        
    C0000006  R0000004  2.             R0000006   -25.       
    C0000006  R0000008  20.         
    C0000007  OBJROW     -48.          R0000001  1.          
    C0000007  R0000002  36.            R0000003  45.         
    C0000007  R0000005   -40.          R0000006   -39.       
    C0000007  R0000008  37.            R0000009  30.         
    C0000008  OBJROW     -19.          R0000001   -18.       
    C0000008  R0000003   -2.           R0000004   -39.       
    C0000008  R0000005  44.            R0000007  14.         
    C0000008  R0000008  32.            R0000009  36.         
    C0000009  OBJROW     -12.          R0000001   -35.       
    C0000009  R0000002  23.            R0000003   -21.       
    C0000009  R0000004  41.            R0000007   -48.       
    C0000009  R0000008   -10.          R0000009   -40.       
    C0000010  OBJROW     -34.          R0000000   -40.       
    C0000010  R0000001  9.             R0000002  4.          
    C0000010  R0000003   -9.           R0000004  9.          
    C0000010  R0000005   -21.          R0000006   -41.       
    C0000010  R0000007  13.            R0000008  1.          
    C0000010  R0000009  5.          
    C0000011  OBJROW     -5.           R0000000  37.         
    C0000011  R0000001   -7.           R0000003  49.         
    C0000011  R0000005  47.         
    C0000012  OBJROW    32.            R0000000  41.         
    C0000012  R0000001  48.            R0000002   -41.       
    C0000012  R0000003  7.             R0000004  10.         
    C0000012  R0000005   -20.          R0000006  22.         
    C0000012  R0000008  29.         
    C0000013  OBJROW     -22.          R0000001  16.         
    C0000013  R0000002   -17.          R0000003  20.         
    C0000013  R0000004   -9.           R0000005   -19.       
    C0000013  R0000008   -13.       
    C0000014  OBJROW     -31.          R0000000  49.         
    C0000014  R0000001  17.            R0000002  29.         
    C0000014  R0000003   -13.          R0000004   -25.       
    C0000014  R0000005   -35.          R0000006   -31.       
    C0000014  R0000008  23.            R0000009   -2.        
    C0000015  OBJROW    18.            R0000001  21.         
    C0000015  R0000002  40.            R0000003   -43.       
    C0000015  R0000004   -34.          R0000005  44.         
    C0000015  R0000007  37.            R0000008  20.         
    C0000015  R0000009  23.         
    C0000016  OBJROW     -23.          R0000000  13.         
    C0000016  R0000001   -28.          R0000002   -46.       
    C0000016  R0000003   -50.          R0000004  12.         
    C0000016  R0000005   -35.          R0000007  47.         
    C0000017  OBJROW     -48.          R0000000   -43.       
    C0000017  R0000001  50.            R0000002   -29.       
    C0000017  R0000003  8.             R0000005  29.         
    C0000017  R0000006   -10.          R0000007   -19.       
    C0000017  R0000008  11.            R0000009   -38.       
    C0000018  OBJROW     -47.          R0000000  24.         
    C0000018  R0000001   -28.          R0000003   -33.       
    C0000018  R0000004  18.            R0000005   -46.       
    C0000018  R0000007  18.            R0000008  21.         
    C0000018  R0000009  32.         
    C0000019  OBJROW    39.            R0000000   -23.       
    C0000019  R0000001  42.            R0000003  27.         
    C0000019  R0000004  27.            R0000005   -43.       
    C0000019  R0000006   -7.           R0000007   -19.       
    C0000019  R0000008  35.            R0000009   -8.        
    C0000020  OBJROW    41.            R0000000  3.          
    C0000020  R0000002   -38.          R0000003   -45.       
    C0000020  R0000004  37.            R0000005   -30.       
    C0000020  R0000007  12.            R0000008  19.         
    C0000020  R0000009   -22.       
    C0000021  OBJROW    10.            R0000000   -32.       
    C0000021  R0000001   -12.          R0000003  46.         
    C0000021  R0000004  29.            R0000009   -49.       
    C0000022  OBJROW    35.            R0000000   -3.        
    C0000022  R0000001   -4.           R0000002   -25.       
    C0000022  R0000003  45.            R0000005   -10.       
    C0000022  R0000008  22.            R0000009  5.          
    C0000023  OBJROW    37.            R0000000   -14.       
    C0000023  R0000001  38.            R0000003  20.         
    C0000023  R0000005   -9.           R0000006   -50.       
    C0000023  R0000007   -22.          R0000008  6.          
    C0000023  R0000009   -38.       
    C0000024  OBJROW     -38.          R0000000   -26.       
    C0000024  R0000001  15.            R0000003   -49.       
    C0000024  R0000006   -13.       
    C0000025  OBJROW    37.            R0000002   -28.       
    C0000025  R0000003   -19.          R0000007  20.         
    C0000025  R0000008  22.            R0000009  41.         
    C0000026  OBJROW     -9.           R0000000   -1.        
    C0000026  R0000001  37.            R0000002   -42.       
    C0000026  R0000003   -6.           R0000005  12.         
    C0000026  R0000008  45.            R0000009   -32.       
    C0000027  OBJROW     -21.          R0000000   -1.        
    C0000027  R0000001   -36.          R0000002  16.         
    C0000027  R0000003  42.            R0000006   -8.        
    C0000027  R0000008  39.            R0000009   -6.        
    C0000028  OBJROW    43.            R0000000   -30.       
    C0000028  R0000001   -5.           R0000002   -38.       
    C0000028  R0000003  19.            R0000007   -39.       
    C0000028  R0000008  6.             R0000009   -22.       
    C0000029  OBJROW     -40.          R0000001  20.         
    C0000029  R0000003   -7.           R0000005  36.         
    C0000029  R0000006   -2.           R0000008  34.         
    C0000029  R0000009   -46.       
RHS
    RHS       R0000000   -171.         R0000001  31.         
    RHS       R0000002   -189.         R0000003  264.        
    RHS       R0000004   -153.         R0000005   -491.      
    RHS       R0000006   -483.         R0000007  352.        
    RHS       R0000008  809.           R0000009  196.        
BOUNDS
 UI BOUND     C0000000  500.        
 UI BOUND     C0000001  500.        
 UI BOUND     C0000002  500.        
 UI BOUND     C0000003  500.        
 UI BOUND     C0000004  500.        
 UI BOUND     C0000005  500.        
 UI BOUND     C0000006  500.        
 UI BOUND     C0000007  500.        
 UI BOUND     C0000008  500.        
 UI BOUND     C0000009  500.        
 UI BOUND     C0000010  500.        
 UI BOUND     C0000011  500.        
 UI BOUND     C0000012  500.        
 UI BOUND     C0000013  500.        
 UI BOUND     C0000014  500.        
 UI BOUND     C0000015  500.        
 UI BOUND     C0000016  500.        
 UI BOUND     C0000017  500.        
 UI BOUND     C0000018  500.        
 UI BOUND     C0000019  500.        
 UI BOUND     C0000020  500.        
 UI BOUND     C0000021  500.        
 UI BOUND     C0000022  500.        
 UI BOUND     C0000023  500.        
 UI BOUND     C0000024  500.        
 UI BOUND     C0000025  500.        
 UI BOUND     C0000026  500.        
 UI BOUND     C0000027  500.        
 UI BOUND     C0000028  500.        
 UI BOUND     C0000029  500.        
ENDATA
