NAME          BLANK   
ROWS
 N  OBJROW
 L  R0000000
 L  R0000001
 L  R0000002
 L  R0000003
 L  R0000004
 L  R0000005
 L  R0000006
 L  R0000007
 L  R0000008
 L  R0000009
 L  R0000010
 L  R0000011
 L  R0000012
 L  R0000013
 L  R0000014
COLUMNS
    C0000000  OBJROW    47.            R0000000  27.         
    C0000000  R0000001   -22.          R0000002   -24.       
    C0000000  R0000003   -35.          R0000005  16.         
    C0000000  R0000009  45.            R0000011   -39.       
    C0000000  R0000012   -47.          R0000013   -46.       
    C0000000  R0000014  13.         
    C0000001  OBJROW     -11.          R0000000  43.         
    C0000001  R0000001   -29.          R0000002   -33.       
    C0000001  R0000003  30.            R0000004  15.         
    C0000001  R0000005   -11.          R0000006  27.         
    C0000001  R0000007  1.             R0000008   -44.       
    C0000001  R0000010  15.            R0000011   -43.       
    C0000001  R0000012   -3.           R0000013   -23.       
    C0000002  OBJROW     -34.          R0000000  6.          
    C0000002  R0000001   -29.          R0000002  23.         
    C0000002  R0000005   -15.          R0000006  12.         
    C0000002  R0000007   -7.           R0000008   -25.       
    C0000002  R0000011   -49.          R0000012   -45.       
    C0000002  R0000013  35.         
    C0000003  OBJROW     -12.          R0000000   -33.       
    C0000003  R0000001   -11.          R0000004   -14.       
    C0000003  R0000007   -26.          R0000008  10.         
    C0000003  R0000009   -5.           R0000011  5.          
    C0000003  R0000012   -30.          R0000013  32.         
    C0000003  R0000014   -19.       
    C0000004  OBJROW    29.            R0000000  48.         
    C0000004  R0000001  45.            R0000002  41.         
    C0000004  R0000003  15.            R0000004   -13.       
    C0000004  R0000006  39.            R0000007   -26.       
    C0000004  R0000009   -21.          R0000013  35.         
    C0000005  OBJROW     -1.           R0000000   -17.       
    C0000005  R0000001  43.            R0000002   -1.        
    C0000005  R0000003   -12.          R0000006   -4.        
    C0000005  R0000007  23.            R0000009   -35.       
    C0000005  R0000010   -23.          R0000011  7.          
    C0000005  R0000012  14.            R0000013   -8.        
    C0000005  R0000014   -34.       
    C0000006  OBJROW    47.            R0000001   -47.       
    C0000006  R0000002   -4.           R0000003   -29.       
    C0000006  R0000004   -29.          R0000006  9.          
    C0000006  R0000007   -46.          R0000008   -15.       
    C0000006  R0000009   -44.          R0000011  40.         
    C0000006  R0000012  44.            R0000013   -38.       
    C0000006  R0000014   -13.       
    C0000007  OBJROW    37.            R0000001  41.         
    C0000007  R0000002   -42.          R0000005  41.         
    C0000007  R0000006   -49.          R0000007  5.          
    C0000007  R0000008  31.            R0000009  44.         
    C0000007  R0000011   -14.          R0000012   -25.       
    C0000007  R0000013  46.         
    C0000008  OBJROW    17.            R0000001  1.          
    C0000008  R0000002   -13.          R0000003  20.         
    C0000008  R0000005  8.             R0000006   -35.       
    C0000008  R0000007  37.            R0000008   -44.       
    C0000008  R0000009   -31.          R0000010  10.         
    C0000008  R0000011  29.            R0000012   -38.       
    C0000008  R0000013  2.             R0000014   -40.       
    C0000009  OBJROW    32.            R0000002  28.         
    C0000009  R0000003  26.            R0000006   -22.       
    C0000009  R0000007   -1.           R0000008  19.         
    C0000009  R0000009  45.            R0000010  30.         
    C0000009  R0000011   -34.          R0000012   -9.        
    C0000009  R0000013   -25.       
    C0000010  OBJROW     -8.           R0000001  40.         
    C0000010  R0000002  35.            R0000005   -47.       
    C0000010  R0000007  20.            R0000009  2.          
    C0000010  R0000011  4.             R0000012  38.         
    C0000010  R0000013   -21.          R0000014  15.         
    C0000011  OBJROW    26.            R0000002   -23.       
    C0000011  R0000003   -28.          R0000004  14.         
    C0000011  R0000005  17.            R0000006  40.         
    C0000011  R0000007   -21.          R0000008   -15.       
    C0000011  R0000009  39.            R0000010   -46.       
    C0000011  R0000011  24.            R0000012  12.         
    C0000011  R0000013  11.            R0000014  30.         
    C0000012  OBJROW    15.            R0000001   -32.       
    C0000012  R0000003   -10.          R0000004   -36.       
    C0000012  R0000007  6.             R0000008  6.          
    C0000012  R0000009  30.            R0000012  30.         
    C0000012  R0000013  10.            R0000014  39.         
    C0000013  OBJROW     -42.          R0000001  49.         
    C0000013  R0000002   -12.          R0000004   -36.       
    C0000013  R0000006  19.            R0000008  45.         
    C0000013  R0000009   -2.           R0000011   -5.        
    C0000013  R0000012  20.            R0000013   -21.       
    C0000014  OBJROW    11.            R0000000   -35.       
    C0000014  R0000001  24.            R0000002  47.         
    C0000014  R0000003   -20.          R0000004   -11.       
    C0000014  R0000005  18.            R0000006   -16.       
    C0000014  R0000007   -17.          R0000009  34.         
    C0000014  R0000011  27.            R0000012   -15.       
    C0000014  R0000014   -7.        
    C0000015  OBJROW     -44.          R0000004  27.         
    C0000015  R0000005   -22.          R0000006  19.         
    C0000015  R0000008   -8.           R0000009  13.         
    C0000015  R0000010   -5.           R0000012   -44.       
    C0000015  R0000013  25.         
    C0000016  OBJROW     -6.           R0000000  22.         
    C0000016  R0000001   -27.          R0000002  23.         
    C0000016  R0000003  16.            R0000004  22.         
    C0000016  R0000005  50.            R0000007  7.          
    C0000016  R0000009   -47.          R0000010  38.         
    C0000016  R0000011   -22.          R0000012   -42.       
    C0000016  R0000013   -44.          R0000014   -34.       
    C0000017  OBJROW     -23.          R0000000  38.         
    C0000017  R0000001   -11.          R0000002  43.         
    C0000017  R0000003   -43.          R0000006  35.         
    C0000017  R0000007   -18.          R0000010   -38.       
    C0000017  R0000011   -36.          R0000012   -29.       
    C0000018  OBJROW     -48.          R0000000   -40.       
    C0000018  R0000005   -31.          R0000007  25.         
    C0000018  R0000008  25.            R0000009   -27.       
    C0000018  R0000012   -21.          R0000013  13.         
    C0000019  OBJROW    40.            R0000001   -21.       
    C0000019  R0000003   -8.           R0000006  9.          
    C0000019  R0000008   -11.          R0000009  34.         
    C0000019  R0000010   -13.          R0000011   -30.       
    C0000019  R0000012   -21.          R0000013  1.          
    C0000019  R0000014  36.         
    C0000020  OBJROW    46.            R0000001  36.         
    C0000020  R0000002  50.            R0000007  34.         
    C0000020  R0000008   -48.          R0000009  48.         
    C0000020  R0000010   -48.          R0000011   -3.        
    C0000020  R0000012   -43.          R0000013   -31.       
    C0000020  R0000014  48.         
    C0000021  OBJROW     -16.          R0000002   -16.       
    C0000021  R0000003   -28.          R0000004   -28.       
    C0000021  R0000005  27.            R0000006   -5.        
    C0000021  R0000007   -14.          R0000008   -18.       
    C0000021  R0000009  37.            R0000012  8.          
    C0000021  R0000013   -8.           R0000014   -13.       
    C0000022  OBJROW    27.            R0000001  30.         
    C0000022  R0000002   -31.          R0000003   -3.        
    C0000022  R0000005   -31.          R0000006   -32.       
    C0000022  R0000007  5.             R0000008  34.         
    C0000022  R0000010   -17.          R0000011  44.         
    C0000022  R0000012   -22.          R0000013   -12.       
    C0000022  R0000014  2.          
    C0000023  OBJROW     -31.          R0000000   -33.       
    C0000023  R0000001   -8.           R0000002  7.          
    C0000023  R0000003   -31.          R0000004  33.         
    C0000023  R0000005  8.             R0000006  21.         
    C0000023  R0000007  6.             R0000009  41.         
    C0000023  R0000010  23.            R0000011  36.         
    C0000023  R0000012  11.            R0000014  30.         
    C0000024  OBJROW    28.            R0000002  5.          
    C0000024  R0000003  37.            R0000005   -42.       
    C0000024  R0000006   -41.          R0000007   -22.       
    C0000024  R0000009  32.            R0000011   -7.        
    C0000024  R0000012  33.            R0000013  27.         
    C0000025  OBJROW    22.            R0000000   -3.        
    C0000025  R0000001  32.            R0000003  27.         
    C0000025  R0000004   -35.          R0000005   -38.       
    C0000025  R0000006  1.             R0000007   -20.       
    C0000025  R0000009   -35.          R0000010  27.         
    C0000025  R0000011   -16.          R0000012   -42.       
    C0000025  R0000013  31.         
    C0000026  OBJROW     -14.          R0000001   -30.       
    C0000026  R0000002  40.            R0000003  49.         
    C0000026  R0000004   -25.          R0000006   -34.       
    C0000026  R0000009   -11.          R0000011   -14.       
    C0000026  R0000012   -38.          R0000013  45.         
    C0000027  OBJROW    17.            R0000004   -8.        
    C0000027  R0000006  24.            R0000007   -15.       
    C0000027  R0000010  16.            R0000011  13.         
    C0000027  R0000012  41.            R0000013  13.         
    C0000027  R0000014   -7.        
    C0000028  OBJROW    36.            R0000000  41.         
    C0000028  R0000002  14.            R0000003   -18.       
    C0000028  R0000007   -18.          R0000008   -39.       
    C0000028  R0000009   -18.          R0000011   -6.        
    C0000028  R0000012   -30.          R0000014   -3.        
    C0000029  OBJROW    34.            R0000000  8.          
    C0000029  R0000001  38.            R0000002   -17.       
    C0000029  R0000003  36.            R0000006  42.         
    C0000029  R0000007  16.            R0000009  44.         
    C0000029  R0000010  17.            R0000011  38.         
    C0000029  R0000012  14.            R0000013  1.          
    C0000029  R0000014  38.         
RHS
    RHS       R0000000  11.            R0000001   -110.      
    RHS       R0000002  159.           R0000003   -52.       
    RHS       R0000004   -54.          R0000005   -240.      
    RHS       R0000006  150.           R0000007   -245.      
    RHS       R0000008   -171.         R0000009  273.        
    RHS       R0000010   -80.          R0000011   -260.      
    RHS       R0000012   -853.         R0000013  539.        
    RHS       R0000014  148.        
BOUNDS
 UI BOUND     C0000000  500.        
 UI BOUND     C0000001  500.        
 UI BOUND     C0000002  500.        
 UI BOUND     C0000003  500.        
 UI BOUND     C0000004  500.        
 UI BOUND     C0000005  500.        
 UI BOUND     C0000006  500.        
 UI BOUND     C0000007  500.        
 UI BOUND     C0000008  500.        
 UI BOUND     C0000009  500.        
 UI BOUND     C0000010  500.        
 UI BOUND     C0000011  500.        
 UI BOUND     C0000012  500.        
 UI BOUND     C0000013  500.        
 UI BOUND     C0000014  500.        
 UI BOUND     C0000015  500.        
 UI BOUND     C0000016  500.        
 UI BOUND     C0000017  500.        
 UI BOUND     C0000018  500.        
 UI BOUND     C0000019  500.        
 UI BOUND     C0000020  500.        
 UI BOUND     C0000021  500.        
 UI BOUND     C0000022  500.        
 UI BOUND     C0000023  500.        
 UI BOUND     C0000024  500.        
 UI BOUND     C0000025  500.        
 UI BOUND     C0000026  500.        
 UI BOUND     C0000027  500.        
 UI BOUND     C0000028  500.        
 UI BOUND     C0000029  500.        
ENDATA
