NAME          BLANK   
ROWS
 N  OBJROW
 L  R0000000
 L  R0000001
 L  R0000002
 L  R0000003
 L  R0000004
 L  R0000005
 L  R0000006
 L  R0000007
 L  R0000008
 L  R0000009
 L  R0000010
 L  R0000011
 L  R0000012
 L  R0000013
 L  R0000014
COLUMNS
    C0000000  OBJROW    28.            R0000000  16.         
    C0000000  R0000001  27.            R0000002  10.         
    C0000000  R0000004   -12.          R0000005  46.         
    C0000000  R0000006   -24.          R0000008  46.         
    C0000000  R0000010  46.            R0000011  6.          
    C0000000  R0000012  17.            R0000014   -22.       
    C0000001  OBJROW    32.            R0000000   -28.       
    C0000001  R0000001   -15.          R0000002   -26.       
    C0000001  R0000003   -40.          R0000005   -27.       
    C0000001  R0000006  13.            R0000008   -41.       
    C0000001  R0000009   -20.          R0000010  13.         
    C0000001  R0000011   -37.          R0000013   -11.       
    C0000002  OBJROW     -2.           R0000000   -27.       
    C0000002  R0000003  10.            R0000005   -16.       
    C0000002  R0000006   -17.          R0000008  43.         
    C0000002  R0000009  38.            R0000011   -5.        
    C0000002  R0000012   -29.          R0000014   -29.       
    C0000003  OBJROW    9.             R0000000  29.         
    C0000003  R0000001   -33.          R0000002   -24.       
    C0000003  R0000003   -30.          R0000004  4.          
    C0000003  R0000005  10.            R0000008   -41.       
    C0000003  R0000009   -9.           R0000011   -27.       
    C0000003  R0000012   -23.          R0000014  28.         
    C0000004  OBJROW    41.            R0000000   -6.        
    C0000004  R0000001  36.            R0000002   -27.       
    C0000004  R0000003   -19.          R0000005  35.         
    C0000004  R0000006  4.             R0000007   -20.       
    C0000004  R0000008  16.            R0000009   -42.       
    C0000004  R0000010  43.            R0000012   -21.       
    C0000004  R0000013  37.            R0000014   -30.       
    C0000005  OBJROW    18.            R0000000   -48.       
    C0000005  R0000001   -9.           R0000005  45.         
    C0000005  R0000006   -48.          R0000008   -20.       
    C0000005  R0000009   -5.           R0000010  28.         
    C0000005  R0000011   -50.          R0000012  49.         
    C0000006  OBJROW    19.            R0000000   -34.       
    C0000006  R0000001   -30.          R0000002  17.         
    C0000006  R0000003  1.             R0000004  19.         
    C0000006  R0000005  5.             R0000006   -34.       
    C0000006  R0000007  46.            R0000008  1.          
    C0000006  R0000010  45.            R0000011  48.         
    C0000007  OBJROW    30.            R0000000  36.         
    C0000007  R0000001   -1.           R0000002  45.         
    C0000007  R0000003   -40.          R0000005   -25.       
    C0000007  R0000006   -31.          R0000007   -30.       
    C0000007  R0000008   -5.           R0000009   -33.       
    C0000007  R0000010   -49.          R0000011   -21.       
    C0000007  R0000012   -45.       
    C0000008  OBJROW    3.             R0000000  50.         
    C0000008  R0000001  39.            R0000002  2.          
    C0000008  R0000003  31.            R0000004  48.         
    C0000008  R0000005   -7.           R0000007  14.         
    C0000008  R0000008  47.            R0000009   -10.       
    C0000008  R0000010   -28.          R0000012   -10.       
    C0000008  R0000013   -47.          R0000014   -40.       
    C0000009  OBJROW     -38.          R0000001   -44.       
    C0000009  R0000002   -40.          R0000003   -45.       
    C0000009  R0000005   -11.          R0000006  24.         
    C0000009  R0000007  41.            R0000009   -35.       
    C0000009  R0000010  50.            R0000012  30.         
    C0000009  R0000014  9.          
    C0000010  OBJROW     -26.          R0000000   -12.       
    C0000010  R0000001   -9.           R0000002  2.          
    C0000010  R0000003   -40.          R0000004   -50.       
    C0000010  R0000005   -33.          R0000006   -27.       
    C0000010  R0000010  33.         
    C0000011  OBJROW    1.             R0000000   -41.       
    C0000011  R0000001   -46.          R0000002  41.         
    C0000011  R0000003   -47.          R0000004  13.         
    C0000011  R0000005   -48.          R0000006  42.         
    C0000011  R0000007  35.            R0000008  48.         
    C0000011  R0000009  13.            R0000010   -22.       
    C0000011  R0000011  21.            R0000012   -4.        
    C0000011  R0000014   -29.       
    C0000012  OBJROW    5.             R0000000   -31.       
    C0000012  R0000003  6.             R0000005   -14.       
    C0000012  R0000008  38.            R0000009  21.         
    C0000012  R0000012  16.            R0000013  5.          
    C0000013  OBJROW    22.            R0000000  24.         
    C0000013  R0000001  42.            R0000003  15.         
    C0000013  R0000004   -12.          R0000005  1.          
    C0000013  R0000006  49.            R0000007   -40.       
    C0000013  R0000009  31.            R0000010  27.         
    C0000013  R0000012   -10.       
    C0000014  OBJROW    23.            R0000000   -9.        
    C0000014  R0000001   -26.          R0000002   -6.        
    C0000014  R0000003   -4.           R0000004   -15.       
    C0000014  R0000005  19.            R0000007  24.         
    C0000014  R0000008  45.            R0000009   -31.       
    C0000014  R0000011   -1.           R0000012  5.          
    C0000014  R0000013   -40.          R0000014  30.         
    C0000015  OBJROW     -32.          R0000000   -34.       
    C0000015  R0000001  22.            R0000002  1.          
    C0000015  R0000003   -19.          R0000004   -50.       
    C0000015  R0000005  29.            R0000006   -40.       
    C0000015  R0000008   -5.           R0000009  1.          
    C0000015  R0000010   -2.           R0000012  32.         
    C0000016  OBJROW    29.            R0000000  22.         
    C0000016  R0000001  44.            R0000002   -20.       
    C0000016  R0000003   -45.          R0000004  16.         
    C0000016  R0000005  21.            R0000006  32.         
    C0000016  R0000007  49.            R0000009  3.          
    C0000016  R0000011   -9.           R0000012   -28.       
    C0000016  R0000014   -33.       
    C0000017  OBJROW     -44.          R0000000   -37.       
    C0000017  R0000003   -42.          R0000005  1.          
    C0000017  R0000006   -13.          R0000007  21.         
    C0000017  R0000008   -28.          R0000009   -49.       
    C0000017  R0000010  23.            R0000012  36.         
    C0000018  OBJROW    5.             R0000000   -3.        
    C0000018  R0000001  12.            R0000003  32.         
    C0000018  R0000005  15.            R0000006  6.          
    C0000018  R0000007   -8.           R0000008   -15.       
    C0000018  R0000010  30.            R0000012   -6.        
    C0000018  R0000013  15.            R0000014   -34.       
    C0000019  OBJROW    13.            R0000000  6.          
    C0000019  R0000001   -38.          R0000003  28.         
    C0000019  R0000004   -37.          R0000005  14.         
    C0000019  R0000007  32.            R0000008   -46.       
    C0000019  R0000009  48.            R0000010  1.          
    C0000019  R0000012  14.         
    C0000020  OBJROW    16.            R0000000  45.         
    C0000020  R0000001   -48.          R0000002   -23.       
    C0000020  R0000003   -3.           R0000005   -42.       
    C0000020  R0000006   -35.          R0000008   -9.        
    C0000020  R0000009   -31.          R0000010  28.         
    C0000020  R0000011  31.            R0000012  7.          
    C0000021  OBJROW     -3.           R0000000   -31.       
    C0000021  R0000001  44.            R0000002  29.         
    C0000021  R0000003   -27.          R0000004  37.         
    C0000021  R0000005   -9.           R0000006  14.         
    C0000021  R0000007   -31.          R0000008  5.          
    C0000021  R0000009  10.            R0000010   -23.       
    C0000021  R0000011   -16.          R0000012   -48.       
    C0000021  R0000014   -2.        
    C0000022  OBJROW    29.            R0000000  24.         
    C0000022  R0000001  49.            R0000002   -22.       
    C0000022  R0000003   -17.          R0000004  29.         
    C0000022  R0000005   -15.          R0000006   -40.       
    C0000022  R0000007   -28.          R0000008   -45.       
    C0000022  R0000009  12.            R0000010   -29.       
    C0000022  R0000011   -4.           R0000012  28.         
    C0000022  R0000013  13.            R0000014  20.         
    C0000023  OBJROW     -30.          R0000000  3.          
    C0000023  R0000001  12.            R0000002  20.         
    C0000023  R0000005   -48.          R0000006  46.         
    C0000023  R0000007   -40.          R0000008   -43.       
    C0000023  R0000009  34.            R0000012  39.         
    C0000023  R0000014   -22.       
    C0000024  OBJROW    17.            R0000000   -22.       
    C0000024  R0000001  33.            R0000002  24.         
    C0000024  R0000003  42.            R0000004   -6.        
    C0000024  R0000005  18.            R0000006  2.          
    C0000024  R0000009   -17.          R0000010   -26.       
    C0000024  R0000012   -4.           R0000013   -18.       
    C0000025  OBJROW     -12.          R0000000   -21.       
    C0000025  R0000001  22.            R0000002   -27.       
    C0000025  R0000004   -17.          R0000005  15.         
    C0000025  R0000006  13.            R0000008   -13.       
    C0000025  R0000010  12.            R0000011   -30.       
    C0000025  R0000012  9.             R0000014   -4.        
    C0000026  OBJROW     -49.          R0000000  46.         
    C0000026  R0000002   -16.          R0000003  2.          
    C0000026  R0000005   -34.          R0000007   -29.       
    C0000026  R0000008  11.            R0000009   -3.        
    C0000026  R0000010   -33.          R0000012  30.         
    C0000026  R0000013  31.            R0000014  26.         
    C0000027  OBJROW     -24.          R0000000   -44.       
    C0000027  R0000001  18.            R0000002  39.         
    C0000027  R0000003  21.            R0000005  30.         
    C0000027  R0000006  20.            R0000008   -1.        
    C0000027  R0000009  17.            R0000010  16.         
    C0000027  R0000011   -50.          R0000013  28.         
    C0000027  R0000014   -46.       
    C0000028  OBJROW     -42.          R0000000   -15.       
    C0000028  R0000002   -42.          R0000003  36.         
    C0000028  R0000004   -18.          R0000005   -45.       
    C0000028  R0000006   -47.          R0000007   -36.       
    C0000028  R0000008   -39.          R0000009   -44.       
    C0000028  R0000010  2.             R0000012   -34.       
    C0000028  R0000014  33.         
    C0000029  OBJROW    28.            R0000000   -14.       
    C0000029  R0000002   -46.          R0000003   -10.       
    C0000029  R0000004   -1.           R0000005   -32.       
    C0000029  R0000008  22.            R0000010  3.          
    C0000029  R0000011  42.            R0000012   -24.       
    C0000029  R0000013  40.            R0000014   -35.       
RHS
    RHS       R0000000   -336.         R0000001  304.        
    RHS       R0000002  268.           R0000003   -254.      
    RHS       R0000004   -61.          R0000005   -220.      
    RHS       R0000006   -372.         R0000007   -80.       
    RHS       R0000008  513.           R0000009   -79.       
    RHS       R0000010   -197.         R0000011   -441.      
    RHS       R0000012   -114.         R0000013   -227.      
    RHS       R0000014   -371.      
BOUNDS
 UI BOUND     C0000000  500.        
 UI BOUND     C0000001  500.        
 UI BOUND     C0000002  500.        
 UI BOUND     C0000003  500.        
 UI BOUND     C0000004  500.        
 UI BOUND     C0000005  500.        
 UI BOUND     C0000006  500.        
 UI BOUND     C0000007  500.        
 UI BOUND     C0000008  500.        
 UI BOUND     C0000009  500.        
 UI BOUND     C0000010  500.        
 UI BOUND     C0000011  500.        
 UI BOUND     C0000012  500.        
 UI BOUND     C0000013  500.        
 UI BOUND     C0000014  500.        
 UI BOUND     C0000015  500.        
 UI BOUND     C0000016  500.        
 UI BOUND     C0000017  500.        
 UI BOUND     C0000018  500.        
 UI BOUND     C0000019  500.        
 UI BOUND     C0000020  500.        
 UI BOUND     C0000021  500.        
 UI BOUND     C0000022  500.        
 UI BOUND     C0000023  500.        
 UI BOUND     C0000024  500.        
 UI BOUND     C0000025  500.        
 UI BOUND     C0000026  500.        
 UI BOUND     C0000027  500.        
 UI BOUND     C0000028  500.        
 UI BOUND     C0000029  500.        
ENDATA
