NAME          BLANK   
ROWS
 N  OBJROW
 L  R0000000
 L  R0000001
 L  R0000002
 L  R0000003
 L  R0000004
 L  R0000005
 L  R0000006
 L  R0000007
 L  R0000008
 L  R0000009
 L  R0000010
 L  R0000011
 L  R0000012
 L  R0000013
 L  R0000014
COLUMNS
    C0000000  OBJROW     -28.          R0000000  7.          
    C0000000  R0000001   -10.          R0000003  29.         
    C0000000  R0000004   -36.          R0000005  23.         
    C0000000  R0000006  6.             R0000007  34.         
    C0000000  R0000008  24.            R0000009  16.         
    C0000000  R0000010  20.            R0000011  35.         
    C0000000  R0000012   -16.          R0000014   -27.       
    C0000001  OBJROW    20.            R0000001   -42.       
    C0000001  R0000002  10.            R0000003  21.         
    C0000001  R0000004   -14.          R0000005  49.         
    C0000001  R0000006  47.            R0000008   -27.       
    C0000001  R0000009  50.            R0000011  2.          
    C0000001  R0000012  32.            R0000014  10.         
    C0000002  OBJROW    9.             R0000001   -24.       
    C0000002  R0000003  7.             R0000006  37.         
    C0000002  R0000007  32.            R0000008   -44.       
    C0000002  R0000009   -26.          R0000010   -49.       
    C0000002  R0000011   -25.          R0000012   -5.        
    C0000002  R0000013  36.            R0000014  21.         
    C0000003  OBJROW    12.            R0000000   -12.       
    C0000003  R0000001   -2.           R0000002   -46.       
    C0000003  R0000003   -43.          R0000004  4.          
    C0000003  R0000005  15.            R0000006   -45.       
    C0000003  R0000007  9.             R0000008  40.         
    C0000003  R0000010  44.            R0000011  4.          
    C0000003  R0000012  24.            R0000013  16.         
    C0000003  R0000014   -19.       
    C0000004  OBJROW     -6.           R0000001   -10.       
    C0000004  R0000002  14.            R0000003   -48.       
    C0000004  R0000004  18.            R0000005   -45.       
    C0000004  R0000006  9.             R0000008   -5.        
    C0000004  R0000009  4.             R0000011  26.         
    C0000004  R0000012  27.            R0000014   -7.        
    C0000005  OBJROW    6.             R0000001   -7.        
    C0000005  R0000003  3.             R0000004  42.         
    C0000005  R0000005   -49.          R0000007  24.         
    C0000005  R0000008   -43.          R0000009  16.         
    C0000005  R0000010   -30.          R0000011  16.         
    C0000005  R0000012  17.            R0000014   -12.       
    C0000006  OBJROW     -32.          R0000001   -27.       
    C0000006  R0000002  39.            R0000004  48.         
    C0000006  R0000006   -3.           R0000007  39.         
    C0000006  R0000008  32.            R0000009  47.         
    C0000006  R0000010  47.            R0000011  43.         
    C0000006  R0000012   -43.       
    C0000007  OBJROW    20.            R0000000  33.         
    C0000007  R0000001   -6.           R0000003   -4.        
    C0000007  R0000004  50.            R0000006  49.         
    C0000007  R0000007  6.             R0000009  31.         
    C0000007  R0000010  19.            R0000011  7.          
    C0000007  R0000012  12.            R0000013  20.         
    C0000008  OBJROW    38.            R0000001   -1.        
    C0000008  R0000002  43.            R0000003   -50.       
    C0000008  R0000006  27.            R0000007  18.         
    C0000008  R0000009   -2.           R0000010   -47.       
    C0000008  R0000011   -4.           R0000012  28.         
    C0000008  R0000013   -37.          R0000014  26.         
    C0000009  OBJROW    16.            R0000000  48.         
    C0000009  R0000001  5.             R0000005   -39.       
    C0000009  R0000006  35.            R0000007  43.         
    C0000009  R0000009   -7.           R0000011   -38.       
    C0000009  R0000012   -9.           R0000014   -6.        
    C0000010  OBJROW    49.            R0000000   -10.       
    C0000010  R0000001   -28.          R0000004  41.         
    C0000010  R0000005  4.             R0000006  27.         
    C0000010  R0000007   -12.          R0000008   -49.       
    C0000010  R0000010  8.             R0000011  41.         
    C0000010  R0000012  9.             R0000013  12.         
    C0000010  R0000014  25.         
    C0000011  OBJROW     -39.          R0000000  46.         
    C0000011  R0000001   -25.          R0000003   -49.       
    C0000011  R0000004   -12.          R0000005  2.          
    C0000011  R0000006  30.            R0000007   -8.        
    C0000011  R0000008  34.            R0000009   -11.       
    C0000011  R0000010  47.            R0000011   -19.       
    C0000011  R0000012  14.            R0000013  24.         
    C0000011  R0000014  38.         
    C0000012  OBJROW    18.            R0000001  46.         
    C0000012  R0000003   -40.          R0000005  42.         
    C0000012  R0000007  41.            R0000009  46.         
    C0000012  R0000011  35.            R0000012  44.         
    C0000012  R0000013  35.            R0000014  14.         
    C0000013  OBJROW     -19.          R0000000   -3.        
    C0000013  R0000001  36.            R0000002   -26.       
    C0000013  R0000004  16.            R0000005  37.         
    C0000013  R0000006   -47.          R0000007   -22.       
    C0000013  R0000008   -45.          R0000009   -26.       
    C0000013  R0000010  30.            R0000011  48.         
    C0000013  R0000012  19.         
    C0000014  OBJROW    47.            R0000001  11.         
    C0000014  R0000002   -49.          R0000003  1.          
    C0000014  R0000004   -13.          R0000005   -27.       
    C0000014  R0000006  37.            R0000007   -12.       
    C0000014  R0000008  43.            R0000009  9.          
    C0000014  R0000010  5.             R0000011   -47.       
    C0000014  R0000012   -9.           R0000013   -45.       
    C0000014  R0000014   -48.       
    C0000015  OBJROW    25.            R0000001   -29.       
    C0000015  R0000002  38.            R0000003  4.          
    C0000015  R0000004  31.            R0000005   -10.       
    C0000015  R0000006  34.            R0000007  22.         
    C0000015  R0000009   -47.          R0000010   -2.        
    C0000015  R0000011   -7.           R0000012   -37.       
    C0000016  OBJROW     -40.          R0000001   -8.        
    C0000016  R0000002  28.            R0000003   -14.       
    C0000016  R0000004   -11.          R0000006   -19.       
    C0000016  R0000007   -36.          R0000008  7.          
    C0000016  R0000009   -29.          R0000012   -33.       
    C0000016  R0000013   -45.          R0000014  37.         
    C0000017  OBJROW     -40.          R0000001  33.         
    C0000017  R0000002   -20.          R0000003   -16.       
    C0000017  R0000005   -24.          R0000007  9.          
    C0000017  R0000009  39.            R0000010  43.         
    C0000017  R0000011  32.            R0000012   -16.       
    C0000017  R0000014  1.          
    C0000018  OBJROW    15.            R0000000  31.         
    C0000018  R0000001   -5.           R0000002  38.         
    C0000018  R0000004  17.            R0000006   -31.       
    C0000018  R0000007  13.            R0000008   -17.       
    C0000018  R0000009   -48.          R0000010   -18.       
    C0000018  R0000011  6.             R0000012   -1.        
    C0000018  R0000013   -36.       
    C0000019  OBJROW    35.            R0000001  21.         
    C0000019  R0000002  15.            R0000003   -38.       
    C0000019  R0000004   -37.          R0000006   -43.       
    C0000019  R0000007  32.            R0000008   -33.       
    C0000019  R0000009   -15.          R0000010  42.         
    C0000019  R0000012  11.         
    C0000020  OBJROW    37.            R0000001  46.         
    C0000020  R0000002  21.            R0000003  14.         
    C0000020  R0000004   -12.          R0000005  7.          
    C0000020  R0000006   -17.          R0000007  27.         
    C0000020  R0000008  40.            R0000009   -12.       
    C0000020  R0000010  17.            R0000011   -23.       
    C0000021  OBJROW    3.             R0000001  6.          
    C0000021  R0000003   -46.          R0000004   -24.       
    C0000021  R0000005  5.             R0000007   -28.       
    C0000021  R0000008  9.             R0000009  50.         
    C0000021  R0000011  9.             R0000012  22.         
    C0000021  R0000014   -17.       
    C0000022  OBJROW     -12.          R0000001  31.         
    C0000022  R0000007   -29.          R0000008  18.         
    C0000022  R0000009  29.            R0000010  21.         
    C0000022  R0000011  29.            R0000012   -38.       
    C0000022  R0000013  45.            R0000014  4.          
    C0000023  OBJROW    3.             R0000000   -14.       
    C0000023  R0000001  11.            R0000002   -17.       
    C0000023  R0000003   -1.           R0000004  46.         
    C0000023  R0000005   -23.          R0000007  42.         
    C0000023  R0000008   -3.           R0000009   -18.       
    C0000023  R0000010   -7.           R0000012  16.         
    C0000023  R0000013  34.            R0000014  43.         
    C0000024  OBJROW     -46.          R0000000   -35.       
    C0000024  R0000001   -40.          R0000002  28.         
    C0000024  R0000003  24.            R0000005   -13.       
    C0000024  R0000006   -10.          R0000007   -21.       
    C0000024  R0000010   -29.          R0000011   -43.       
    C0000024  R0000012  35.            R0000013   -30.       
    C0000024  R0000014  15.         
RHS
    RHS       R0000000  492.           R0000001   -193.      
    RHS       R0000002  393.           R0000003   -318.      
    RHS       R0000004  593.           R0000005   -489.      
    RHS       R0000006  385.           R0000007  238.        
    RHS       R0000008   -125.         R0000009   -280.      
    RHS       R0000010  266.           R0000011  107.        
    RHS       R0000012  2.             R0000013  237.        
    RHS       R0000014  247.        
BOUNDS
 UI BOUND     C0000000  500.        
 UI BOUND     C0000001  500.        
 UI BOUND     C0000002  500.        
 UI BOUND     C0000003  500.        
 UI BOUND     C0000004  500.        
 UI BOUND     C0000005  500.        
 UI BOUND     C0000006  500.        
 UI BOUND     C0000007  500.        
 UI BOUND     C0000008  500.        
 UI BOUND     C0000009  500.        
 UI BOUND     C0000010  500.        
 UI BOUND     C0000011  500.        
 UI BOUND     C0000012  500.        
 UI BOUND     C0000013  500.        
 UI BOUND     C0000014  500.        
 UI BOUND     C0000015  500.        
 UI BOUND     C0000016  500.        
 UI BOUND     C0000017  500.        
 UI BOUND     C0000018  500.        
 UI BOUND     C0000019  500.        
 UI BOUND     C0000020  500.        
 UI BOUND     C0000021  500.        
 UI BOUND     C0000022  500.        
 UI BOUND     C0000023  500.        
 UI BOUND     C0000024  500.        
ENDATA
