NAME          BLANK   
ROWS
 N  OBJROW
 L  R0000000
 L  R0000001
 L  R0000002
 L  R0000003
 L  R0000004
 L  R0000005
 L  R0000006
 L  R0000007
 L  R0000008
 L  R0000009
COLUMNS
    C0000000  OBJROW     -49.          R0000001   -6.        
    C0000000  R0000002   -16.          R0000003   -26.       
    C0000000  R0000006  28.            R0000007  25.         
    C0000000  R0000008  11.            R0000009  47.         
    C0000001  OBJROW    13.            R0000000  34.         
    C0000001  R0000001  26.            R0000002  28.         
    C0000001  R0000005   -19.          R0000006  40.         
    C0000001  R0000007  33.            R0000008   -7.        
    C0000002  OBJROW     -1.           R0000000  3.          
    C0000002  R0000003   -48.          R0000006  47.         
    C0000002  R0000007  44.            R0000008   -27.       
    C0000002  R0000009  21.         
    C0000003  OBJROW    44.            R0000001  12.         
    C0000003  R0000002  23.            R0000003   -11.       
    C0000003  R0000004   -3.           R0000005   -35.       
    C0000003  R0000006  50.            R0000007   -44.       
    C0000003  R0000009  35.         
    C0000004  OBJROW    28.            R0000000  1.          
    C0000004  R0000001  35.            R0000002  47.         
    C0000004  R0000003  22.            R0000005   -45.       
    C0000004  R0000006  29.            R0000008   -22.       
    C0000004  R0000009   -26.       
    C0000005  OBJROW    2.             R0000000  7.          
    C0000005  R0000002  47.            R0000005  47.         
    C0000005  R0000006  41.            R0000007   -1.        
    C0000005  R0000009   -42.       
    C0000006  OBJROW    46.            R0000000   -25.       
    C0000006  R0000001   -13.          R0000002  41.         
    C0000006  R0000003  49.            R0000004   -28.       
    C0000006  R0000005  22.            R0000007   -28.       
    C0000006  R0000008   -21.          R0000009  3.          
    C0000007  OBJROW     -23.          R0000001   -50.       
    C0000007  R0000002   -44.          R0000005   -38.       
    C0000007  R0000006  10.            R0000008   -24.       
    C0000007  R0000009   -20.       
    C0000008  OBJROW     -28.          R0000000   -5.        
    C0000008  R0000001  1.             R0000002  31.         
    C0000008  R0000003   -17.          R0000006   -31.       
    C0000008  R0000008   -12.          R0000009  31.         
    C0000009  OBJROW     -49.          R0000000  26.         
    C0000009  R0000001  32.            R0000002  50.         
    C0000009  R0000004   -43.          R0000006  25.         
    C0000009  R0000007   -27.          R0000008  24.         
    C0000009  R0000009  37.         
    C0000010  OBJROW     -33.          R0000001  15.         
    C0000010  R0000002  31.            R0000004  29.         
    C0000010  R0000005  36.            R0000008   -4.        
    C0000010  R0000009   -16.       
    C0000011  OBJROW     -49.          R0000001   -27.       
    C0000011  R0000002   -38.          R0000003  49.         
    C0000011  R0000008  1.             R0000009  30.         
    C0000012  OBJROW    19.            R0000000   -13.       
    C0000012  R0000001  11.            R0000002   -27.       
    C0000012  R0000003  42.            R0000006  37.         
    C0000012  R0000007  45.            R0000008   -49.       
    C0000012  R0000009  43.         
    C0000013  OBJROW    32.            R0000001   -13.       
    C0000013  R0000002   -48.          R0000004  46.         
    C0000013  R0000005   -32.          R0000007  46.         
    C0000013  R0000009  50.         
    C0000014  OBJROW    21.            R0000000  28.         
    C0000014  R0000001  4.             R0000002  18.         
    C0000014  R0000003  48.            R0000005  37.         
    C0000014  R0000007   -28.          R0000008  16.         
    C0000014  R0000009   -6.        
    C0000015  OBJROW     -20.          R0000001  10.         
    C0000015  R0000002  32.            R0000004   -33.       
    C0000015  R0000006  24.            R0000008   -18.       
    C0000016  OBJROW    48.            R0000000   -47.       
    C0000016  R0000001   -28.          R0000002   -40.       
    C0000016  R0000004   -20.          R0000006   -45.       
    C0000016  R0000007  14.            R0000008  49.         
    C0000016  R0000009  25.         
    C0000017  OBJROW    25.            R0000001   -49.       
    C0000017  R0000002   -43.          R0000003  35.         
    C0000017  R0000005  42.            R0000006  32.         
    C0000017  R0000007   -42.          R0000009   -10.       
    C0000018  OBJROW    11.            R0000000  40.         
    C0000018  R0000001   -18.          R0000004  18.         
    C0000018  R0000005  37.            R0000006   -37.       
    C0000018  R0000007  34.            R0000008  2.          
    C0000018  R0000009   -16.       
    C0000019  OBJROW    21.            R0000000  7.          
    C0000019  R0000001   -46.          R0000002  13.         
    C0000019  R0000003   -16.          R0000005   -49.       
    C0000019  R0000006  47.            R0000008   -18.       
    C0000019  R0000009   -30.       
RHS
    RHS       R0000000   -21.          R0000001   -142.      
    RHS       R0000002  81.            R0000003  628.        
    RHS       R0000004   -390.         R0000005  20.         
    RHS       R0000006  357.           R0000007  36.         
    RHS       R0000008   -229.         R0000009  565.        
BOUNDS
 UI BOUND     C0000000  500.        
 UI BOUND     C0000001  500.        
 UI BOUND     C0000002  500.        
 UI BOUND     C0000003  500.        
 UI BOUND     C0000004  500.        
 UI BOUND     C0000005  500.        
 UI BOUND     C0000006  500.        
 UI BOUND     C0000007  500.        
 UI BOUND     C0000008  500.        
 UI BOUND     C0000009  500.        
 UI BOUND     C0000010  500.        
 UI BOUND     C0000011  500.        
 UI BOUND     C0000012  500.        
 UI BOUND     C0000013  500.        
 UI BOUND     C0000014  500.        
 UI BOUND     C0000015  500.        
 UI BOUND     C0000016  500.        
 UI BOUND     C0000017  500.        
 UI BOUND     C0000018  500.        
 UI BOUND     C0000019  500.        
ENDATA
