NAME          BLANK   
ROWS
 N  OBJROW
 L  R0000000
 L  R0000001
 L  R0000002
 L  R0000003
 L  R0000004
 L  R0000005
 L  R0000006
 L  R0000007
 L  R0000008
 L  R0000009
COLUMNS
    C0000000  OBJROW    9.             R0000000   -7.        
    C0000000  R0000001  38.            R0000003  33.         
    C0000000  R0000004   -13.          R0000007   -21.       
    C0000000  R0000008  24.         
    C0000001  OBJROW     -4.           R0000001  35.         
    C0000001  R0000002   -22.          R0000003   -46.       
    C0000001  R0000004   -5.           R0000005  26.         
    C0000001  R0000007  3.             R0000009  50.         
    C0000002  OBJROW     -15.          R0000000   -37.       
    C0000002  R0000001  37.            R0000002   -31.       
    C0000002  R0000003  16.            R0000004  29.         
    C0000002  R0000005   -7.           R0000007  37.         
    C0000002  R0000008  16.            R0000009   -40.       
    C0000003  OBJROW     -21.          R0000003   -10.       
    C0000003  R0000004  42.            R0000005   -13.       
    C0000003  R0000007  16.            R0000009   -41.       
    C0000004  OBJROW     -12.          R0000001  47.         
    C0000004  R0000002   -29.          R0000003   -35.       
    C0000004  R0000005   -28.          R0000006  23.         
    C0000004  R0000007  3.             R0000008   -10.       
    C0000004  R0000009  25.         
    C0000005  OBJROW     -29.          R0000000  31.         
    C0000005  R0000003   -36.          R0000004  47.         
    C0000005  R0000005  10.            R0000008  39.         
    C0000005  R0000009   -46.       
    C0000006  OBJROW     -8.           R0000001   -13.       
    C0000006  R0000002   -2.           R0000004   -32.       
    C0000006  R0000005  23.            R0000006   -13.       
    C0000006  R0000007   -18.          R0000009  23.         
    C0000007  OBJROW     -31.          R0000000   -37.       
    C0000007  R0000003  10.            R0000004   -28.       
    C0000007  R0000005   -31.          R0000006   -28.       
    C0000007  R0000007   -32.          R0000008   -35.       
    C0000008  OBJROW    1.             R0000000   -13.       
    C0000008  R0000001   -24.          R0000003   -30.       
    C0000008  R0000004   -25.          R0000005  28.         
    C0000008  R0000009   -13.       
    C0000009  OBJROW     -15.          R0000001   -7.        
    C0000009  R0000002   -44.          R0000003  21.         
    C0000009  R0000004  42.            R0000005   -29.       
    C0000009  R0000009  43.         
    C0000010  OBJROW     -46.          R0000001  15.         
    C0000010  R0000002   -30.          R0000004  7.          
    C0000010  R0000005   -4.           R0000006  47.         
    C0000010  R0000007   -7.           R0000009   -39.       
    C0000011  OBJROW     -5.           R0000000   -14.       
    C0000011  R0000003   -6.           R0000004  15.         
    C0000011  R0000005   -50.          R0000006   -35.       
    C0000011  R0000007   -13.          R0000008  1.          
    C0000011  R0000009   -2.        
    C0000012  OBJROW     -41.          R0000003  18.         
    C0000012  R0000004  46.            R0000005  35.         
    C0000012  R0000007   -7.           R0000009   -50.       
    C0000013  OBJROW    13.            R0000000  37.         
    C0000013  R0000001  37.            R0000003  34.         
    C0000013  R0000004  45.            R0000005   -30.       
    C0000013  R0000006   -9.           R0000008   -32.       
    C0000013  R0000009   -15.       
    C0000014  OBJROW    29.            R0000000  13.         
    C0000014  R0000001   -25.          R0000003  29.         
    C0000014  R0000005  32.            R0000006   -18.       
    C0000014  R0000007   -30.          R0000008   -7.        
    C0000014  R0000009   -7.        
    C0000015  OBJROW     -26.          R0000000   -40.       
    C0000015  R0000001  8.             R0000002   -43.       
    C0000015  R0000003  21.            R0000004   -5.        
    C0000015  R0000005  27.            R0000006   -24.       
    C0000015  R0000007   -22.          R0000008  35.         
    C0000015  R0000009   -14.       
    C0000016  OBJROW     -36.          R0000000   -37.       
    C0000016  R0000002   -18.          R0000003   -46.       
    C0000016  R0000004  13.            R0000005  23.         
    C0000016  R0000006   -26.          R0000008  33.         
    C0000016  R0000009  22.         
    C0000017  OBJROW    34.            R0000001   -43.       
    C0000017  R0000002   -50.          R0000003   -39.       
    C0000017  R0000004  2.             R0000005  21.         
    C0000017  R0000007  3.             R0000008   -21.       
    C0000017  R0000009  40.         
    C0000018  OBJROW    41.            R0000000   -48.       
    C0000018  R0000003   -3.           R0000004  26.         
    C0000018  R0000005   -40.          R0000006   -1.        
    C0000018  R0000007   -31.          R0000009  30.         
    C0000019  OBJROW     -23.          R0000001   -23.       
    C0000019  R0000003  46.            R0000004  25.         
    C0000019  R0000005  2.             R0000007  36.         
    C0000019  R0000009  42.         
    C0000020  OBJROW     -23.          R0000003   -47.       
    C0000020  R0000004   -36.          R0000005  22.         
    C0000020  R0000007  14.            R0000009  24.         
    C0000021  OBJROW     -29.          R0000002   -3.        
    C0000021  R0000003  33.            R0000004   -30.       
    C0000021  R0000005   -22.          R0000006  39.         
    C0000021  R0000007  31.            R0000008  22.         
    C0000021  R0000009   -4.        
    C0000022  OBJROW     -43.          R0000000   -33.       
    C0000022  R0000001   -21.          R0000002   -18.       
    C0000022  R0000004  32.            R0000005  40.         
    C0000022  R0000008  20.         
    C0000023  OBJROW     -21.          R0000000   -2.        
    C0000023  R0000002   -17.          R0000003   -32.       
    C0000023  R0000004  37.            R0000005   -37.       
    C0000023  R0000006   -5.           R0000007   -43.       
    C0000023  R0000009   -43.       
    C0000024  OBJROW    30.            R0000001   -15.       
    C0000024  R0000002  16.            R0000003  37.         
    C0000024  R0000004   -16.          R0000005  27.         
    C0000024  R0000006   -14.          R0000007   -39.       
    C0000024  R0000009   -24.       
    C0000025  OBJROW     -19.          R0000000   -44.       
    C0000025  R0000001   -47.          R0000002   -30.       
    C0000025  R0000003  9.             R0000005  50.         
    C0000025  R0000006   -32.          R0000007   -39.       
    C0000025  R0000008  15.            R0000009   -8.        
    C0000026  OBJROW     -47.          R0000000   -44.       
    C0000026  R0000002  7.             R0000003  17.         
    C0000026  R0000004   -22.          R0000005  33.         
    C0000026  R0000006   -5.           R0000009   -19.       
    C0000027  OBJROW     -11.          R0000000   -28.       
    C0000027  R0000002   -14.          R0000003  9.          
    C0000027  R0000004  47.            R0000005   -10.       
    C0000027  R0000007   -25.          R0000009  44.         
    C0000028  OBJROW     -5.           R0000001  6.          
    C0000028  R0000003  27.            R0000004   -23.       
    C0000028  R0000005   -22.          R0000006  37.         
    C0000028  R0000007  29.            R0000008   -48.       
    C0000028  R0000009  46.         
    C0000029  OBJROW     -25.          R0000000   -36.       
    C0000029  R0000002   -4.           R0000003  20.         
    C0000029  R0000004  48.            R0000005   -19.       
    C0000029  R0000006  6.             R0000007  29.         
    C0000029  R0000008  15.            R0000009   -41.       
RHS
    RHS       R0000000   -563.         R0000001  309.        
    RHS       R0000002   -609.         R0000003  232.        
    RHS       R0000004  928.           R0000005   -334.      
    RHS       R0000006  98.            R0000007   -160.      
    RHS       R0000008   -36.          R0000009  22.         
BOUNDS
 UI BOUND     C0000000  500.        
 UI BOUND     C0000001  500.        
 UI BOUND     C0000002  500.        
 UI BOUND     C0000003  500.        
 UI BOUND     C0000004  500.        
 UI BOUND     C0000005  500.        
 UI BOUND     C0000006  500.        
 UI BOUND     C0000007  500.        
 UI BOUND     C0000008  500.        
 UI BOUND     C0000009  500.        
 UI BOUND     C0000010  500.        
 UI BOUND     C0000011  500.        
 UI BOUND     C0000012  500.        
 UI BOUND     C0000013  500.        
 UI BOUND     C0000014  500.        
 UI BOUND     C0000015  500.        
 UI BOUND     C0000016  500.        
 UI BOUND     C0000017  500.        
 UI BOUND     C0000018  500.        
 UI BOUND     C0000019  500.        
 UI BOUND     C0000020  500.        
 UI BOUND     C0000021  500.        
 UI BOUND     C0000022  500.        
 UI BOUND     C0000023  500.        
 UI BOUND     C0000024  500.        
 UI BOUND     C0000025  500.        
 UI BOUND     C0000026  500.        
 UI BOUND     C0000027  500.        
 UI BOUND     C0000028  500.        
 UI BOUND     C0000029  500.        
ENDATA
