NAME          BLANK   
ROWS
 N  OBJROW
 L  R0000000
 L  R0000001
 L  R0000002
 L  R0000003
 L  R0000004
 L  R0000005
 L  R0000006
 L  R0000007
 L  R0000008
 L  R0000009
COLUMNS
    C0000000  OBJROW    22.            R0000000   -6.        
    C0000000  R0000001  48.            R0000002   -10.       
    C0000000  R0000003   -13.          R0000004  36.         
    C0000000  R0000006   -41.          R0000008  47.         
    C0000000  R0000009  31.         
    C0000001  OBJROW    24.            R0000000   -41.       
    C0000001  R0000001  18.            R0000002  13.         
    C0000001  R0000003   -49.          R0000004   -43.       
    C0000001  R0000005  3.             R0000006  37.         
    C0000001  R0000007  46.            R0000008  11.         
    C0000001  R0000009   -1.        
    C0000002  OBJROW     -19.          R0000000  26.         
    C0000002  R0000001  50.            R0000002   -7.        
    C0000002  R0000003  34.            R0000004   -22.       
    C0000002  R0000005  3.             R0000006  3.          
    C0000002  R0000007   -18.          R0000008   -32.       
    C0000002  R0000009  15.         
    C0000003  OBJROW     -13.          R0000000  17.         
    C0000003  R0000001  47.            R0000002   -27.       
    C0000003  R0000003   -31.          R0000004   -49.       
    C0000003  R0000005  9.             R0000006  42.         
    C0000003  R0000007  14.            R0000008  7.          
    C0000003  R0000009  10.         
    C0000004  OBJROW     -9.           R0000000  24.         
    C0000004  R0000001   -6.           R0000003  28.         
    C0000004  R0000004  14.            R0000005   -43.       
    C0000004  R0000006   -13.          R0000007  44.         
    C0000004  R0000008   -3.           R0000009   -15.       
    C0000005  OBJROW     -6.           R0000000   -42.       
    C0000005  R0000001   -21.          R0000002   -47.       
    C0000005  R0000003  15.            R0000004  22.         
    C0000005  R0000005  14.            R0000006  16.         
    C0000005  R0000007   -1.        
    C0000006  OBJROW     -43.          R0000000  13.         
    C0000006  R0000002  44.            R0000003   -17.       
    C0000006  R0000004   -12.          R0000005  9.          
    C0000006  R0000006  24.            R0000007  46.         
    C0000006  R0000008  45.            R0000009   -24.       
    C0000007  OBJROW    2.             R0000000   -42.       
    C0000007  R0000002   -24.          R0000003  38.         
    C0000007  R0000004   -30.          R0000005   -46.       
    C0000007  R0000006   -14.          R0000007  17.         
    C0000007  R0000009   -45.       
    C0000008  OBJROW    4.             R0000000   -34.       
    C0000008  R0000001  24.            R0000002  34.         
    C0000008  R0000003  39.            R0000004   -40.       
    C0000008  R0000006   -18.          R0000007  4.          
    C0000008  R0000008   -21.          R0000009  36.         
    C0000009  OBJROW     -44.          R0000000   -21.       
    C0000009  R0000001  18.            R0000002   -28.       
    C0000009  R0000003   -8.           R0000004  16.         
    C0000009  R0000005  31.            R0000006   -15.       
    C0000009  R0000007  5.             R0000008  21.         
    C0000010  OBJROW    25.            R0000000   -48.       
    C0000010  R0000001  15.            R0000003  1.          
    C0000010  R0000004  14.            R0000005  3.          
    C0000010  R0000006  13.            R0000007  46.         
    C0000010  R0000008  6.             R0000009   -49.       
    C0000011  OBJROW     -27.          R0000000   -2.        
    C0000011  R0000002  29.            R0000003  1.          
    C0000011  R0000004  47.            R0000005  12.         
    C0000011  R0000006  29.            R0000007   -14.       
    C0000011  R0000009   -19.       
    C0000012  OBJROW    33.            R0000000  39.         
    C0000012  R0000001   -35.          R0000002  36.         
    C0000012  R0000003  28.            R0000004  13.         
    C0000012  R0000006   -42.          R0000007   -38.       
    C0000012  R0000009  34.         
    C0000013  OBJROW    44.            R0000000  38.         
    C0000013  R0000001   -13.          R0000002  45.         
    C0000013  R0000003  32.            R0000004   -46.       
    C0000013  R0000005  12.            R0000006  7.          
    C0000013  R0000007  31.            R0000008   -38.       
    C0000013  R0000009   -10.       
    C0000014  OBJROW     -44.          R0000000   -9.        
    C0000014  R0000001   -39.          R0000002  37.         
    C0000014  R0000003  14.            R0000004  45.         
    C0000014  R0000006  48.            R0000007   -21.       
    C0000014  R0000008   -47.          R0000009  38.         
    C0000015  OBJROW    42.            R0000000   -47.       
    C0000015  R0000001   -43.          R0000002   -24.       
    C0000015  R0000003  35.            R0000004  25.         
    C0000015  R0000005   -3.           R0000006  33.         
    C0000015  R0000007   -8.           R0000008  3.          
    C0000015  R0000009   -10.       
    C0000016  OBJROW    43.            R0000000   -44.       
    C0000016  R0000001   -24.          R0000002  35.         
    C0000016  R0000003  42.            R0000004   -3.        
    C0000016  R0000005   -50.          R0000006   -20.       
    C0000016  R0000007  39.            R0000008  24.         
    C0000016  R0000009   -48.       
    C0000017  OBJROW    44.            R0000000  16.         
    C0000017  R0000002  46.            R0000003  26.         
    C0000017  R0000004   -50.          R0000005  49.         
    C0000017  R0000006   -14.          R0000007  25.         
    C0000017  R0000009   -10.       
    C0000018  OBJROW    2.             R0000000   -29.       
    C0000018  R0000001  10.            R0000002   -11.       
    C0000018  R0000004  31.            R0000005   -21.       
    C0000018  R0000006  41.            R0000007  29.         
    C0000018  R0000008  50.            R0000009   -15.       
    C0000019  OBJROW     -45.          R0000000  41.         
    C0000019  R0000002   -5.           R0000003  14.         
    C0000019  R0000005  49.            R0000006   -15.       
    C0000019  R0000007  5.             R0000009   -43.       
    C0000020  OBJROW     -48.          R0000000  45.         
    C0000020  R0000002   -11.          R0000003  36.         
    C0000020  R0000005  11.            R0000006   -47.       
    C0000020  R0000007  19.            R0000008  15.         
    C0000020  R0000009   -20.       
    C0000021  OBJROW     -44.          R0000000   -34.       
    C0000021  R0000001   -48.          R0000002  30.         
    C0000021  R0000003   -10.          R0000005  14.         
    C0000021  R0000006  13.            R0000007  39.         
    C0000021  R0000009   -14.       
    C0000022  OBJROW    31.            R0000000  10.         
    C0000022  R0000001   -30.          R0000002  16.         
    C0000022  R0000003   -18.          R0000004   -35.       
    C0000022  R0000005   -43.          R0000006   -46.       
    C0000022  R0000007  8.             R0000009   -34.       
    C0000023  OBJROW    16.            R0000000   -44.       
    C0000023  R0000002   -27.          R0000003  40.         
    C0000023  R0000004   -4.           R0000005   -45.       
    C0000023  R0000006  41.            R0000007   -5.        
    C0000023  R0000008  37.            R0000009   -43.       
    C0000024  OBJROW     -49.          R0000000   -31.       
    C0000024  R0000001   -1.           R0000002   -15.       
    C0000024  R0000003   -2.           R0000004  3.          
    C0000024  R0000006  49.            R0000007  21.         
    C0000024  R0000008  46.            R0000009  5.          
RHS
    RHS       R0000000   -521.         R0000001   -97.       
    RHS       R0000002   -286.         R0000003  744.        
    RHS       R0000004  282.           R0000005   -135.      
    RHS       R0000006  6.             R0000007  923.        
    RHS       R0000008  891.           R0000009   -826.      
BOUNDS
 UI BOUND     C0000000  500.        
 UI BOUND     C0000001  500.        
 UI BOUND     C0000002  500.        
 UI BOUND     C0000003  500.        
 UI BOUND     C0000004  500.        
 UI BOUND     C0000005  500.        
 UI BOUND     C0000006  500.        
 UI BOUND     C0000007  500.        
 UI BOUND     C0000008  500.        
 UI BOUND     C0000009  500.        
 UI BOUND     C0000010  500.        
 UI BOUND     C0000011  500.        
 UI BOUND     C0000012  500.        
 UI BOUND     C0000013  500.        
 UI BOUND     C0000014  500.        
 UI BOUND     C0000015  500.        
 UI BOUND     C0000016  500.        
 UI BOUND     C0000017  500.        
 UI BOUND     C0000018  500.        
 UI BOUND     C0000019  500.        
 UI BOUND     C0000020  500.        
 UI BOUND     C0000021  500.        
 UI BOUND     C0000022  500.        
 UI BOUND     C0000023  500.        
 UI BOUND     C0000024  500.        
ENDATA
