NAME          BLANK   
ROWS
 N  OBJROW
 L  R0000000
 L  R0000001
 L  R0000002
 L  R0000003
 L  R0000004
 L  R0000005
 L  R0000006
 L  R0000007
 L  R0000008
 L  R0000009
 L  R0000010
 L  R0000011
 L  R0000012
 L  R0000013
 L  R0000014
COLUMNS
    C0000000  OBJROW     -40.          R0000001  42.         
    C0000000  R0000003   -12.          R0000005   -15.       
    C0000000  R0000006   -30.          R0000007   -37.       
    C0000000  R0000008   -19.          R0000009  41.         
    C0000000  R0000010  33.            R0000011   -47.       
    C0000000  R0000012  34.            R0000013   -45.       
    C0000000  R0000014  2.          
    C0000001  OBJROW    15.            R0000003   -25.       
    C0000001  R0000006  47.            R0000007   -4.        
    C0000001  R0000008   -38.          R0000009   -35.       
    C0000001  R0000010  42.            R0000011  29.         
    C0000001  R0000013   -11.          R0000014  1.          
    C0000002  OBJROW    47.            R0000000   -13.       
    C0000002  R0000002  12.            R0000005  35.         
    C0000002  R0000006   -50.          R0000007  20.         
    C0000002  R0000008   -16.          R0000009  49.         
    C0000002  R0000011   -24.          R0000012   -6.        
    C0000002  R0000013  16.            R0000014  30.         
    C0000003  OBJROW    1.             R0000000   -28.       
    C0000003  R0000006  8.             R0000007   -36.       
    C0000003  R0000008   -7.           R0000009   -40.       
    C0000003  R0000011  34.            R0000013   -20.       
    C0000003  R0000014   -35.       
    C0000004  OBJROW     -26.          R0000002  41.         
    C0000004  R0000003  11.            R0000004  40.         
    C0000004  R0000006  44.            R0000007  43.         
    C0000004  R0000010   -24.          R0000011   -49.       
    C0000004  R0000012  14.            R0000013  25.         
    C0000004  R0000014   -2.        
    C0000005  OBJROW    3.             R0000000   -8.        
    C0000005  R0000003  7.             R0000006   -4.        
    C0000005  R0000007   -34.          R0000009  47.         
    C0000005  R0000010   -30.          R0000011   -6.        
    C0000005  R0000012   -40.          R0000014   -48.       
    C0000006  OBJROW    17.            R0000000  44.         
    C0000006  R0000003   -46.          R0000004   -12.       
    C0000006  R0000005   -37.          R0000006   -1.        
    C0000006  R0000007   -3.           R0000009  29.         
    C0000006  R0000010   -16.          R0000013   -28.       
    C0000006  R0000014  29.         
    C0000007  OBJROW     -47.          R0000002   -12.       
    C0000007  R0000003  47.            R0000006   -19.       
    C0000007  R0000007  19.            R0000009  18.         
    C0000007  R0000011  20.            R0000013   -20.       
    C0000007  R0000014   -9.        
    C0000008  OBJROW     -2.           R0000000  43.         
    C0000008  R0000002  7.             R0000003   -26.       
    C0000008  R0000005   -45.          R0000006  9.          
    C0000008  R0000008  32.            R0000009   -21.       
    C0000008  R0000010  28.            R0000011   -27.       
    C0000008  R0000013   -28.       
    C0000009  OBJROW     -21.          R0000000  13.         
    C0000009  R0000002   -38.          R0000003   -34.       
    C0000009  R0000004   -48.          R0000005   -40.       
    C0000009  R0000006   -47.          R0000008  15.         
    C0000009  R0000009   -11.          R0000010  4.          
    C0000009  R0000011  10.            R0000012   -38.       
    C0000009  R0000013   -46.          R0000014   -36.       
    C0000010  OBJROW    25.            R0000001  46.         
    C0000010  R0000002  12.            R0000003   -29.       
    C0000010  R0000005  26.            R0000006  13.         
    C0000010  R0000007  35.            R0000008  44.         
    C0000010  R0000009   -42.          R0000010   -39.       
    C0000010  R0000011   -48.          R0000012   -22.       
    C0000010  R0000013  28.            R0000014  46.         
    C0000011  OBJROW     -31.          R0000001  30.         
    C0000011  R0000002   -7.           R0000004  5.          
    C0000011  R0000006  25.            R0000007   -31.       
    C0000011  R0000009  34.            R0000012  14.         
    C0000011  R0000013   -49.          R0000014   -21.       
    C0000012  OBJROW     -6.           R0000002  3.          
    C0000012  R0000003  24.            R0000006  24.         
    C0000012  R0000007   -2.           R0000008   -19.       
    C0000012  R0000009  47.            R0000011  30.         
    C0000012  R0000013  7.             R0000014  21.         
    C0000013  OBJROW     -33.          R0000000  49.         
    C0000013  R0000001  12.            R0000002   -48.       
    C0000013  R0000004  41.            R0000005   -9.        
    C0000013  R0000006   -43.          R0000007  42.         
    C0000013  R0000009  4.             R0000010   -27.       
    C0000013  R0000011   -48.          R0000013  50.         
    C0000013  R0000014  27.         
    C0000014  OBJROW    3.             R0000000  24.         
    C0000014  R0000002   -21.          R0000003  33.         
    C0000014  R0000004  37.            R0000005   -9.        
    C0000014  R0000006  34.            R0000007   -9.        
    C0000014  R0000008   -36.          R0000009   -46.       
    C0000014  R0000010   -49.          R0000011  30.         
    C0000014  R0000013  36.            R0000014   -37.       
    C0000015  OBJROW     -36.          R0000000   -48.       
    C0000015  R0000002  42.            R0000003  19.         
    C0000015  R0000004  5.             R0000005  37.         
    C0000015  R0000006  33.            R0000007   -4.        
    C0000015  R0000008   -14.          R0000009   -41.       
    C0000015  R0000011  18.            R0000012   -38.       
    C0000015  R0000013  4.             R0000014  25.         
    C0000016  OBJROW    14.            R0000000  1.          
    C0000016  R0000002   -9.           R0000003  24.         
    C0000016  R0000004  44.            R0000006  14.         
    C0000016  R0000007  34.            R0000008   -20.       
    C0000016  R0000009  16.            R0000010   -44.       
    C0000016  R0000012   -3.           R0000013   -8.        
    C0000016  R0000014   -50.       
    C0000017  OBJROW     -36.          R0000001   -44.       
    C0000017  R0000002  36.            R0000003   -21.       
    C0000017  R0000004  2.             R0000005   -11.       
    C0000017  R0000006  45.            R0000007  39.         
    C0000017  R0000008   -25.          R0000009   -23.       
    C0000017  R0000010   -33.          R0000011   -22.       
    C0000017  R0000012  11.            R0000013   -48.       
    C0000017  R0000014   -32.       
    C0000018  OBJROW     -1.           R0000001  12.         
    C0000018  R0000002  44.            R0000004  14.         
    C0000018  R0000005   -19.          R0000006   -18.       
    C0000018  R0000007   -11.          R0000008   -27.       
    C0000018  R0000009   -26.          R0000010   -38.       
    C0000018  R0000011   -30.          R0000013   -8.        
    C0000018  R0000014  25.         
    C0000019  OBJROW     -48.          R0000000  14.         
    C0000019  R0000002   -4.           R0000003  22.         
    C0000019  R0000004   -27.          R0000006  3.          
    C0000019  R0000008  40.            R0000009   -26.       
    C0000019  R0000010   -26.          R0000011  18.         
    C0000019  R0000012   -37.          R0000013   -41.       
    C0000019  R0000014  4.          
RHS
    RHS       R0000000  434.           R0000001  258.        
    RHS       R0000002   -125.         R0000003   -127.      
    RHS       R0000004  274.           R0000005   -118.      
    RHS       R0000006   -145.         R0000007  334.        
    RHS       R0000008  115.           R0000009  192.        
    RHS       R0000010   -473.         R0000011   -446.      
    RHS       R0000012   -222.         R0000013   -87.       
    RHS       R0000014  110.        
BOUNDS
 UI BOUND     C0000000  500.        
 UI BOUND     C0000001  500.        
 UI BOUND     C0000002  500.        
 UI BOUND     C0000003  500.        
 UI BOUND     C0000004  500.        
 UI BOUND     C0000005  500.        
 UI BOUND     C0000006  500.        
 UI BOUND     C0000007  500.        
 UI BOUND     C0000008  500.        
 UI BOUND     C0000009  500.        
 UI BOUND     C0000010  500.        
 UI BOUND     C0000011  500.        
 UI BOUND     C0000012  500.        
 UI BOUND     C0000013  500.        
 UI BOUND     C0000014  500.        
 UI BOUND     C0000015  500.        
 UI BOUND     C0000016  500.        
 UI BOUND     C0000017  500.        
 UI BOUND     C0000018  500.        
 UI BOUND     C0000019  500.        
ENDATA
