NAME          BLANK   
ROWS
 N  OBJROW
 L  R0000000
 L  R0000001
 L  R0000002
 L  R0000003
 L  R0000004
 L  R0000005
 L  R0000006
 L  R0000007
 L  R0000008
 L  R0000009
 L  R0000010
 L  R0000011
 L  R0000012
 L  R0000013
 L  R0000014
COLUMNS
    C0000000  OBJROW     -7.           R0000000  6.          
    C0000000  R0000001   -13.          R0000004   -18.       
    C0000000  R0000005  18.            R0000010   -16.       
    C0000000  R0000012  42.            R0000013   -17.       
    C0000000  R0000014   -50.       
    C0000001  OBJROW    22.            R0000000  45.         
    C0000001  R0000001  23.            R0000002  9.          
    C0000001  R0000003   -4.           R0000004   -45.       
    C0000001  R0000005  24.            R0000006  47.         
    C0000001  R0000007   -33.          R0000008  49.         
    C0000001  R0000009   -19.          R0000010  8.          
    C0000001  R0000013   -15.       
    C0000002  OBJROW    16.            R0000003   -27.       
    C0000002  R0000004   -48.          R0000005   -17.       
    C0000002  R0000009  13.            R0000010   -8.        
    C0000002  R0000011  43.            R0000012   -24.       
    C0000002  R0000013  50.            R0000014   -33.       
    C0000003  OBJROW    30.            R0000000  38.         
    C0000003  R0000001   -35.          R0000002  31.         
    C0000003  R0000004   -47.          R0000005   -44.       
    C0000003  R0000006  7.             R0000007  5.          
    C0000003  R0000008  34.            R0000010  40.         
    C0000003  R0000011   -49.          R0000012   -12.       
    C0000003  R0000014   -20.       
    C0000004  OBJROW    1.             R0000000   -23.       
    C0000004  R0000001  36.            R0000003  34.         
    C0000004  R0000004   -14.          R0000005   -17.       
    C0000004  R0000007  23.            R0000008   -11.       
    C0000004  R0000009  1.             R0000010   -7.        
    C0000004  R0000011  41.            R0000012   -44.       
    C0000004  R0000014   -42.       
    C0000005  OBJROW    5.             R0000002   -50.       
    C0000005  R0000004  1.             R0000005   -38.       
    C0000005  R0000006   -40.          R0000009   -8.        
    C0000005  R0000010   -6.           R0000012   -4.        
    C0000005  R0000014   -12.       
    C0000006  OBJROW     -34.          R0000000  6.          
    C0000006  R0000002   -6.           R0000004  45.         
    C0000006  R0000005  43.            R0000008   -41.       
    C0000006  R0000010  32.            R0000011  4.          
    C0000006  R0000012  40.            R0000013  11.         
    C0000006  R0000014   -20.       
    C0000007  OBJROW     -27.          R0000000   -43.       
    C0000007  R0000001   -13.          R0000002  19.         
    C0000007  R0000003   -39.          R0000004  25.         
    C0000007  R0000005   -23.          R0000006   -38.       
    C0000007  R0000007  45.            R0000009  43.         
    C0000007  R0000010  39.            R0000012   -26.       
    C0000007  R0000014   -38.       
    C0000008  OBJROW    21.            R0000001  50.         
    C0000008  R0000002  38.            R0000003   -5.        
    C0000008  R0000004  9.             R0000005   -23.       
    C0000008  R0000006   -32.          R0000007   -29.       
    C0000008  R0000008  29.            R0000009   -1.        
    C0000008  R0000011   -16.          R0000012  30.         
    C0000008  R0000013  40.            R0000014   -49.       
    C0000009  OBJROW     -1.           R0000000  5.          
    C0000009  R0000001  2.             R0000004  7.          
    C0000009  R0000005   -44.          R0000008  28.         
    C0000009  R0000010   -20.          R0000011   -14.       
    C0000009  R0000012   -40.          R0000013  7.          
    C0000009  R0000014  3.          
    C0000010  OBJROW     -47.          R0000000   -34.       
    C0000010  R0000003   -10.          R0000004   -27.       
    C0000010  R0000005   -36.          R0000006  11.         
    C0000010  R0000007   -31.          R0000009  21.         
    C0000010  R0000010  35.            R0000012  41.         
    C0000011  OBJROW    25.            R0000000   -26.       
    C0000011  R0000001   -6.           R0000003  33.         
    C0000011  R0000004  32.            R0000005  21.         
    C0000011  R0000006  37.            R0000009   -34.       
    C0000011  R0000012  14.            R0000013   -10.       
    C0000011  R0000014  6.          
    C0000012  OBJROW    32.            R0000000   -8.        
    C0000012  R0000002  38.            R0000003  14.         
    C0000012  R0000004   -37.          R0000005   -2.        
    C0000012  R0000006   -19.          R0000007   -13.       
    C0000012  R0000010   -40.          R0000011  18.         
    C0000012  R0000012  21.            R0000013  44.         
    C0000012  R0000014   -28.       
    C0000013  OBJROW     -6.           R0000003  2.          
    C0000013  R0000005   -6.           R0000007  2.          
    C0000013  R0000008  28.            R0000010   -14.       
    C0000013  R0000011   -14.          R0000012  1.          
    C0000013  R0000013  28.         
    C0000014  OBJROW     -42.          R0000001  29.         
    C0000014  R0000003   -48.          R0000004  44.         
    C0000014  R0000005   -32.          R0000007  10.         
    C0000014  R0000008  38.            R0000009  20.         
    C0000014  R0000010  42.            R0000011  33.         
    C0000014  R0000012  18.            R0000014   -36.       
    C0000015  OBJROW     -40.          R0000002  25.         
    C0000015  R0000004   -6.           R0000005   -22.       
    C0000015  R0000006   -38.          R0000009   -42.       
    C0000015  R0000010   -46.          R0000011  44.         
    C0000015  R0000012  35.            R0000013   -11.       
    C0000015  R0000014   -29.       
    C0000016  OBJROW    6.             R0000000  20.         
    C0000016  R0000003   -1.           R0000004  47.         
    C0000016  R0000005  39.            R0000008   -13.       
    C0000016  R0000010   -35.          R0000013   -38.       
    C0000016  R0000014   -33.       
    C0000017  OBJROW    3.             R0000000  21.         
    C0000017  R0000001  10.            R0000003   -32.       
    C0000017  R0000004  27.            R0000005   -22.       
    C0000017  R0000006   -43.          R0000007   -42.       
    C0000017  R0000009  19.            R0000012  20.         
    C0000017  R0000014  16.         
    C0000018  OBJROW     -36.          R0000000   -43.       
    C0000018  R0000001  21.            R0000002  39.         
    C0000018  R0000004  21.            R0000005  19.         
    C0000018  R0000012   -44.       
    C0000019  OBJROW     -39.          R0000000   -9.        
    C0000019  R0000001  11.            R0000002  18.         
    C0000019  R0000003  20.            R0000004   -37.       
    C0000019  R0000007   -35.          R0000010   -19.       
    C0000019  R0000012  30.            R0000014   -4.        
    C0000020  OBJROW    11.            R0000003  35.         
    C0000020  R0000004  5.             R0000005   -31.       
    C0000020  R0000007  26.            R0000008  32.         
    C0000020  R0000012   -47.       
    C0000021  OBJROW    28.            R0000003  50.         
    C0000021  R0000004  17.            R0000006  33.         
    C0000021  R0000008   -37.          R0000009   -6.        
    C0000021  R0000010   -8.           R0000012   -27.       
    C0000021  R0000013  50.            R0000014   -47.       
    C0000022  OBJROW    47.            R0000000  9.          
    C0000022  R0000001  49.            R0000002  50.         
    C0000022  R0000003   -1.           R0000004  50.         
    C0000022  R0000005   -31.          R0000008   -15.       
    C0000022  R0000011  34.            R0000012  20.         
    C0000023  OBJROW     -16.          R0000000   -39.       
    C0000023  R0000001  38.            R0000002   -26.       
    C0000023  R0000003   -31.          R0000004  34.         
    C0000023  R0000005   -34.          R0000007   -41.       
    C0000023  R0000010   -39.          R0000011  18.         
    C0000023  R0000013  2.             R0000014  47.         
    C0000024  OBJROW     -47.          R0000000   -23.       
    C0000024  R0000003  14.            R0000004   -36.       
    C0000024  R0000005  40.            R0000006  35.         
    C0000024  R0000007  35.            R0000008   -16.       
    C0000024  R0000009   -17.          R0000010  49.         
    C0000024  R0000011   -47.          R0000012  25.         
    C0000024  R0000013  33.            R0000014  20.         
RHS
    RHS       R0000000   -377.         R0000001  134.        
    RHS       R0000002  202.           R0000003  359.        
    RHS       R0000004   -267.         R0000005   -327.      
    RHS       R0000006  70.            R0000007   -95.       
    RHS       R0000008   -27.          R0000009   -247.      
    RHS       R0000010   -126.         R0000011  157.        
    RHS       R0000012  330.           R0000013  288.        
    RHS       R0000014   -756.      
BOUNDS
 UI BOUND     C0000000  500.        
 UI BOUND     C0000001  500.        
 UI BOUND     C0000002  500.        
 UI BOUND     C0000003  500.        
 UI BOUND     C0000004  500.        
 UI BOUND     C0000005  500.        
 UI BOUND     C0000006  500.        
 UI BOUND     C0000007  500.        
 UI BOUND     C0000008  500.        
 UI BOUND     C0000009  500.        
 UI BOUND     C0000010  500.        
 UI BOUND     C0000011  500.        
 UI BOUND     C0000012  500.        
 UI BOUND     C0000013  500.        
 UI BOUND     C0000014  500.        
 UI BOUND     C0000015  500.        
 UI BOUND     C0000016  500.        
 UI BOUND     C0000017  500.        
 UI BOUND     C0000018  500.        
 UI BOUND     C0000019  500.        
 UI BOUND     C0000020  500.        
 UI BOUND     C0000021  500.        
 UI BOUND     C0000022  500.        
 UI BOUND     C0000023  500.        
 UI BOUND     C0000024  500.        
ENDATA
