NAME          BLANK   
ROWS
 N  OBJROW
 L  R0000000
 L  R0000001
 L  R0000002
 L  R0000003
 L  R0000004
 L  R0000005
 L  R0000006
 L  R0000007
 L  R0000008
 L  R0000009
COLUMNS
    C0000000  OBJROW     -12.          R0000001  4.          
    C0000000  R0000002  23.            R0000003  48.         
    C0000000  R0000004  48.            R0000005  33.         
    C0000000  R0000006   -39.          R0000007   -35.       
    C0000000  R0000008  34.            R0000009  34.         
    C0000001  OBJROW    3.             R0000000  30.         
    C0000001  R0000001  32.            R0000002  37.         
    C0000001  R0000006  1.             R0000007   -28.       
    C0000001  R0000008   -29.          R0000009  20.         
    C0000002  OBJROW    29.            R0000000   -43.       
    C0000002  R0000001   -26.          R0000003   -8.        
    C0000002  R0000004   -6.           R0000005  24.         
    C0000002  R0000007  18.            R0000008  5.          
    C0000002  R0000009   -1.        
    C0000003  OBJROW    4.             R0000000   -15.       
    C0000003  R0000001  23.            R0000003   -13.       
    C0000003  R0000004   -11.          R0000006   -40.       
    C0000003  R0000007  17.            R0000008   -45.       
    C0000003  R0000009  25.         
    C0000004  OBJROW    43.            R0000000  1.          
    C0000004  R0000003  4.             R0000004   -47.       
    C0000004  R0000006  35.            R0000007   -9.        
    C0000004  R0000009   -34.       
    C0000005  OBJROW     -22.          R0000000   -39.       
    C0000005  R0000001   -34.          R0000002   -30.       
    C0000005  R0000004  23.            R0000005  13.         
    C0000005  R0000007   -49.          R0000008  6.          
    C0000005  R0000009   -37.       
    C0000006  OBJROW     -47.          R0000000   -21.       
    C0000006  R0000001   -27.          R0000003   -6.        
    C0000006  R0000006  45.            R0000008  9.          
    C0000006  R0000009  34.         
    C0000007  OBJROW     -22.          R0000000   -9.        
    C0000007  R0000002   -44.          R0000003   -7.        
    C0000007  R0000004  39.            R0000005   -9.        
    C0000007  R0000008   -28.          R0000009  22.         
    C0000008  OBJROW     -49.          R0000000   -4.        
    C0000008  R0000003  46.            R0000004  9.          
    C0000008  R0000005   -48.          R0000006   -5.        
    C0000008  R0000007   -38.          R0000008  21.         
    C0000008  R0000009  24.         
    C0000009  OBJROW     -49.          R0000000   -48.       
    C0000009  R0000002   -6.           R0000007   -28.       
    C0000009  R0000009   -16.       
    C0000010  OBJROW    30.            R0000000   -47.       
    C0000010  R0000001  10.            R0000002  28.         
    C0000010  R0000003  43.            R0000005  10.         
    C0000010  R0000006  42.            R0000007  44.         
    C0000010  R0000008   -28.          R0000009  35.         
    C0000011  OBJROW     -35.          R0000001  30.         
    C0000011  R0000004  1.             R0000005   -2.        
    C0000011  R0000007  1.             R0000008   -5.        
    C0000011  R0000009  47.         
    C0000012  OBJROW    47.            R0000003   -44.       
    C0000012  R0000009  4.          
    C0000013  OBJROW     -48.          R0000001   -40.       
    C0000013  R0000002  10.            R0000003   -8.        
    C0000013  R0000005  6.             R0000007   -44.       
    C0000013  R0000008   -1.           R0000009  9.          
    C0000014  OBJROW     -41.          R0000001  8.          
    C0000014  R0000002  10.            R0000003   -28.       
    C0000014  R0000004  5.             R0000005   -26.       
    C0000014  R0000007   -37.          R0000008   -3.        
    C0000014  R0000009  5.          
    C0000015  OBJROW     -20.          R0000000  47.         
    C0000015  R0000001   -44.          R0000004   -7.        
    C0000015  R0000005   -48.          R0000008  22.         
    C0000015  R0000009  2.          
    C0000016  OBJROW    5.             R0000001   -5.        
    C0000016  R0000002  41.            R0000003  40.         
    C0000016  R0000004   -37.          R0000006  18.         
    C0000016  R0000009  48.         
    C0000017  OBJROW     -47.          R0000000   -18.       
    C0000017  R0000001  46.            R0000003   -41.       
    C0000017  R0000004   -28.          R0000005   -15.       
    C0000017  R0000007  19.            R0000008  24.         
    C0000017  R0000009  11.         
    C0000018  OBJROW     -19.          R0000000   -19.       
    C0000018  R0000002  34.            R0000003   -36.       
    C0000018  R0000004  45.            R0000005  47.         
    C0000018  R0000007   -34.          R0000009   -39.       
    C0000019  OBJROW     -21.          R0000003  17.         
    C0000019  R0000005   -29.          R0000008   -35.       
    C0000019  R0000009  21.         
    C0000020  OBJROW     -21.          R0000001   -30.       
    C0000020  R0000002   -13.          R0000003   -15.       
    C0000020  R0000005   -14.          R0000007   -6.        
    C0000020  R0000009   -5.        
    C0000021  OBJROW     -40.          R0000000  47.         
    C0000021  R0000001  14.            R0000002   -50.       
    C0000021  R0000003  32.            R0000004  43.         
    C0000021  R0000005   -46.          R0000007  15.         
    C0000021  R0000009  31.         
    C0000022  OBJROW    40.            R0000002  45.         
    C0000022  R0000003   -16.          R0000004  19.         
    C0000022  R0000009   -42.       
    C0000023  OBJROW    42.            R0000000   -30.       
    C0000023  R0000002  45.            R0000003  50.         
    C0000023  R0000006  47.            R0000008   -5.        
    C0000023  R0000009   -23.       
    C0000024  OBJROW    3.             R0000000   -19.       
    C0000024  R0000003   -2.           R0000005  48.         
    C0000024  R0000007  47.            R0000008  44.         
    C0000024  R0000009  23.         
    C0000025  OBJROW    38.            R0000000  2.          
    C0000025  R0000001  8.             R0000002  35.         
    C0000025  R0000003  34.            R0000004   -41.       
    C0000025  R0000005   -36.          R0000006   -31.       
    C0000025  R0000008  34.            R0000009  2.          
    C0000026  OBJROW    4.             R0000004  30.         
    C0000026  R0000005  17.            R0000007   -40.       
    C0000026  R0000008  15.            R0000009  2.          
    C0000027  OBJROW    4.             R0000000  19.         
    C0000027  R0000003  38.            R0000005  4.          
    C0000027  R0000008  20.            R0000009   -13.       
    C0000028  OBJROW    24.            R0000001  18.         
    C0000028  R0000005  24.            R0000009  14.         
    C0000029  OBJROW     -2.           R0000000  21.         
    C0000029  R0000001   -44.          R0000004  8.          
    C0000029  R0000005  49.            R0000007  45.         
    C0000029  R0000009  42.         
RHS
    RHS       R0000000  9.             R0000001   -310.      
    RHS       R0000002   -92.          R0000003  630.        
    RHS       R0000004  294.           R0000005   -451.      
    RHS       R0000006  337.           R0000007   -278.      
    RHS       R0000008   -143.         R0000009  739.        
BOUNDS
 UI BOUND     C0000000  500.        
 UI BOUND     C0000001  500.        
 UI BOUND     C0000002  500.        
 UI BOUND     C0000003  500.        
 UI BOUND     C0000004  500.        
 UI BOUND     C0000005  500.        
 UI BOUND     C0000006  500.        
 UI BOUND     C0000007  500.        
 UI BOUND     C0000008  500.        
 UI BOUND     C0000009  500.        
 UI BOUND     C0000010  500.        
 UI BOUND     C0000011  500.        
 UI BOUND     C0000012  500.        
 UI BOUND     C0000013  500.        
 UI BOUND     C0000014  500.        
 UI BOUND     C0000015  500.        
 UI BOUND     C0000016  500.        
 UI BOUND     C0000017  500.        
 UI BOUND     C0000018  500.        
 UI BOUND     C0000019  500.        
 UI BOUND     C0000020  500.        
 UI BOUND     C0000021  500.        
 UI BOUND     C0000022  500.        
 UI BOUND     C0000023  500.        
 UI BOUND     C0000024  500.        
 UI BOUND     C0000025  500.        
 UI BOUND     C0000026  500.        
 UI BOUND     C0000027  500.        
 UI BOUND     C0000028  500.        
 UI BOUND     C0000029  500.        
ENDATA
