NAME          BLANK   
ROWS
 N  OBJROW
 L  R0000000
 L  R0000001
 L  R0000002
 L  R0000003
 L  R0000004
 L  R0000005
 L  R0000006
 L  R0000007
 L  R0000008
 L  R0000009
COLUMNS
    C0000000  OBJROW     -36.          R0000000   -17.       
    C0000000  R0000001  18.            R0000002   -10.       
    C0000000  R0000003  37.            R0000005  43.         
    C0000000  R0000007   -18.          R0000008  11.         
    C0000000  R0000009  19.         
    C0000001  OBJROW     -49.          R0000001   -21.       
    C0000001  R0000003  34.            R0000004  31.         
    C0000001  R0000005  6.             R0000007  14.         
    C0000002  OBJROW    30.            R0000000  5.          
    C0000002  R0000001   -25.          R0000003  29.         
    C0000002  R0000004   -30.          R0000005  12.         
    C0000002  R0000007  41.            R0000008  24.         
    C0000003  OBJROW     -49.          R0000001   -49.       
    C0000003  R0000002  13.            R0000003  26.         
    C0000003  R0000004   -22.          R0000005   -31.       
    C0000003  R0000009   -47.       
    C0000004  OBJROW    41.            R0000000  50.         
    C0000004  R0000001  29.            R0000002   -37.       
    C0000004  R0000004  47.            R0000007  33.         
    C0000005  OBJROW    24.            R0000000  37.         
    C0000005  R0000001  40.            R0000003  27.         
    C0000005  R0000004   -23.          R0000005   -6.        
    C0000005  R0000006   -21.          R0000007   -23.       
    C0000005  R0000008   -10.       
    C0000006  OBJROW     -44.          R0000001   -1.        
    C0000006  R0000002   -23.          R0000003   -16.       
    C0000006  R0000004   -4.           R0000006  3.          
    C0000006  R0000009  9.          
    C0000007  OBJROW    42.            R0000000  11.         
    C0000007  R0000001  24.            R0000002   -41.       
    C0000007  R0000004   -36.          R0000005  25.         
    C0000007  R0000007  18.         
    C0000008  OBJROW    2.             R0000001  33.         
    C0000008  R0000003  45.            R0000004  1.          
    C0000008  R0000005  29.            R0000006   -42.       
    C0000009  OBJROW     -34.          R0000001  1.          
    C0000009  R0000002  39.            R0000003  18.         
    C0000009  R0000005  17.            R0000007  9.          
    C0000009  R0000009   -23.       
    C0000010  OBJROW     -34.          R0000000  44.         
    C0000010  R0000001   -36.          R0000003   -6.        
    C0000010  R0000004  4.             R0000005  47.         
    C0000010  R0000006  46.            R0000007  22.         
    C0000010  R0000009   -35.       
    C0000011  OBJROW     -23.          R0000001  50.         
    C0000011  R0000002  23.            R0000003   -19.       
    C0000011  R0000004   -47.          R0000005  38.         
    C0000011  R0000006  39.            R0000009  14.         
    C0000012  OBJROW     -41.          R0000001  48.         
    C0000012  R0000002  40.            R0000003   -24.       
    C0000012  R0000004   -43.          R0000005  35.         
    C0000012  R0000008   -38.       
    C0000013  OBJROW     -24.          R0000000   -46.       
    C0000013  R0000001  10.            R0000002   -42.       
    C0000013  R0000003  15.            R0000004   -48.       
    C0000013  R0000005   -17.          R0000006   -12.       
    C0000013  R0000007   -31.          R0000008  31.         
    C0000014  OBJROW    45.            R0000001  1.          
    C0000014  R0000004  42.            R0000005  6.          
    C0000015  OBJROW    45.            R0000001   -40.       
    C0000015  R0000003  16.            R0000004  39.         
    C0000015  R0000005   -49.          R0000006  42.         
    C0000015  R0000008  17.         
    C0000016  OBJROW    11.            R0000000  24.         
    C0000016  R0000001   -48.          R0000003  39.         
    C0000016  R0000005   -37.          R0000006  19.         
    C0000016  R0000009   -26.       
    C0000017  OBJROW    49.            R0000000   -27.       
    C0000017  R0000001   -22.          R0000003   -18.       
    C0000017  R0000005  1.             R0000006   -49.       
    C0000017  R0000007   -6.           R0000008   -46.       
    C0000017  R0000009  6.          
    C0000018  OBJROW    28.            R0000000  8.          
    C0000018  R0000002  18.            R0000003  40.         
    C0000018  R0000004   -25.          R0000006   -16.       
    C0000018  R0000007   -12.       
    C0000019  OBJROW     -33.          R0000000   -44.       
    C0000019  R0000001   -9.           R0000003   -34.       
    C0000019  R0000004  3.             R0000006  30.         
    C0000019  R0000007   -48.          R0000008   -35.       
RHS
    RHS       R0000000   -187.         R0000001  46.         
    RHS       R0000002  73.            R0000003   -65.       
    RHS       R0000004   -123.         R0000005  93.         
    RHS       R0000006  390.           R0000007   -168.      
    RHS       R0000008   -124.         R0000009   -84.       
BOUNDS
 UI BOUND     C0000000  500.        
 UI BOUND     C0000001  500.        
 UI BOUND     C0000002  500.        
 UI BOUND     C0000003  500.        
 UI BOUND     C0000004  500.        
 UI BOUND     C0000005  500.        
 UI BOUND     C0000006  500.        
 UI BOUND     C0000007  500.        
 UI BOUND     C0000008  500.        
 UI BOUND     C0000009  500.        
 UI BOUND     C0000010  500.        
 UI BOUND     C0000011  500.        
 UI BOUND     C0000012  500.        
 UI BOUND     C0000013  500.        
 UI BOUND     C0000014  500.        
 UI BOUND     C0000015  500.        
 UI BOUND     C0000016  500.        
 UI BOUND     C0000017  500.        
 UI BOUND     C0000018  500.        
 UI BOUND     C0000019  500.        
ENDATA
