NAME          BLANK   
ROWS
 N  OBJROW
 L  R0000000
 L  R0000001
 L  R0000002
 L  R0000003
 L  R0000004
COLUMNS
    C0000000  OBJROW    8.             R0000000  30.         
    C0000000  R0000002  4.             R0000003  43.         
    C0000001  OBJROW     -11.          R0000000  1.          
    C0000001  R0000001  26.            R0000002   -1.        
    C0000001  R0000003  14.            R0000004  8.          
    C0000002  OBJROW     -48.          R0000000   -1.        
    C0000002  R0000001   -16.          R0000003  37.         
    C0000002  R0000004   -23.       
    C0000003  OBJROW     -24.          R0000000   -18.       
    C0000003  R0000003  9.             R0000004   -11.       
    C0000004  OBJROW    34.            R0000000   -31.       
    C0000004  R0000001  42.            R0000002   -6.        
    C0000004  R0000003  1.             R0000004  11.         
    C0000005  OBJROW    19.            R0000001   -30.       
    C0000006  OBJROW    21.            R0000000   -2.        
    C0000006  R0000001   -35.          R0000002  37.         
    C0000006  R0000003  8.             R0000004   -7.        
    C0000007  OBJROW     -26.          R0000000   -44.       
    C0000007  R0000001  8.             R0000002   -5.        
    C0000007  R0000003  39.            R0000004   -19.       
    C0000008  OBJROW     -31.          R0000000  49.         
    C0000008  R0000001   -43.          R0000004  23.         
    C0000009  OBJROW     -26.          R0000001  41.         
    C0000009  R0000002   -18.          R0000003   -1.        
    C0000009  R0000004   -12.       
RHS
    RHS       R0000000  60.            R0000001   -167.      
    RHS       R0000002  200.           R0000003  312.        
    RHS       R0000004   -76.       
BOUNDS
 UI BOUND     C0000000  500.        
 UI BOUND     C0000001  500.        
 UI BOUND     C0000002  500.        
 UI BOUND     C0000003  500.        
 UI BOUND     C0000004  500.        
 UI BOUND     C0000005  500.        
 UI BOUND     C0000006  500.        
 UI BOUND     C0000007  500.        
 UI BOUND     C0000008  500.        
 UI BOUND     C0000009  500.        
ENDATA
