NAME          BLANK   
ROWS
 N  OBJROW
 L  R0000000
 L  R0000001
 L  R0000002
 L  R0000003
 L  R0000004
 L  R0000005
 L  R0000006
 L  R0000007
 L  R0000008
 L  R0000009
COLUMNS
    C0000000  OBJROW    47.            R0000001  38.         
    C0000000  R0000002   -24.          R0000005  30.         
    C0000000  R0000006  1.             R0000007   -1.        
    C0000000  R0000008   -25.          R0000009   -29.       
    C0000001  OBJROW    34.            R0000000  8.          
    C0000001  R0000001   -47.          R0000002  20.         
    C0000001  R0000005   -33.          R0000007   -24.       
    C0000001  R0000009   -48.       
    C0000002  OBJROW    46.            R0000000  6.          
    C0000002  R0000001   -11.          R0000002  49.         
    C0000002  R0000005  35.            R0000007   -43.       
    C0000002  R0000008  32.         
    C0000003  OBJROW     -3.           R0000000  45.         
    C0000003  R0000002  24.            R0000003  38.         
    C0000003  R0000004  13.            R0000008  29.         
    C0000003  R0000009  17.         
    C0000004  OBJROW    13.            R0000003  34.         
    C0000004  R0000005   -33.          R0000006  11.         
    C0000004  R0000007  44.            R0000008  28.         
    C0000004  R0000009   -18.       
    C0000005  OBJROW     -36.          R0000001  2.          
    C0000005  R0000004  23.            R0000005   -5.        
    C0000005  R0000007  24.            R0000008  27.         
    C0000005  R0000009  50.         
    C0000006  OBJROW    38.            R0000000  41.         
    C0000006  R0000001  35.            R0000002   -44.       
    C0000006  R0000003  31.            R0000006  7.          
    C0000006  R0000007   -5.           R0000008   -5.        
    C0000006  R0000009   -16.       
    C0000007  OBJROW     -39.          R0000001   -14.       
    C0000007  R0000002  28.            R0000003  34.         
    C0000007  R0000005  24.            R0000006   -2.        
    C0000007  R0000007   -15.          R0000008   -31.       
    C0000007  R0000009  26.         
    C0000008  OBJROW    17.            R0000000  20.         
    C0000008  R0000001  9.             R0000002  25.         
    C0000008  R0000005   -9.           R0000007   -47.       
    C0000008  R0000009   -20.       
    C0000009  OBJROW     -32.          R0000000  28.         
    C0000009  R0000001  31.            R0000002   -40.       
    C0000009  R0000004  38.            R0000006   -2.        
    C0000009  R0000007  48.         
    C0000010  OBJROW    49.            R0000001  37.         
    C0000010  R0000002   -11.          R0000003  8.          
    C0000010  R0000004  15.            R0000005   -50.       
    C0000010  R0000007   -35.          R0000008   -43.       
    C0000010  R0000009  8.          
    C0000011  OBJROW     -29.          R0000001   -32.       
    C0000011  R0000002   -44.          R0000003   -25.       
    C0000011  R0000005  38.            R0000006   -36.       
    C0000011  R0000007   -9.           R0000009  22.         
    C0000012  OBJROW     -31.          R0000001   -50.       
    C0000012  R0000002   -44.          R0000005  38.         
    C0000012  R0000006   -43.          R0000007  50.         
    C0000012  R0000008   -31.          R0000009   -15.       
    C0000013  OBJROW     -48.          R0000000  25.         
    C0000013  R0000001  31.            R0000002   -22.       
    C0000013  R0000004   -17.          R0000005   -45.       
    C0000013  R0000006  7.             R0000007  34.         
    C0000014  OBJROW     -11.          R0000000  9.          
    C0000014  R0000002   -34.          R0000005   -16.       
    C0000014  R0000006  41.            R0000008   -26.       
    C0000015  OBJROW    24.            R0000000  41.         
    C0000015  R0000001   -50.          R0000002   -36.       
    C0000015  R0000003  2.             R0000004  20.         
    C0000015  R0000006   -50.          R0000008   -43.       
    C0000015  R0000009  1.          
    C0000016  OBJROW     -28.          R0000001  13.         
    C0000016  R0000002   -2.           R0000003  12.         
    C0000016  R0000004  12.            R0000006  8.          
    C0000016  R0000007  50.            R0000008   -19.       
    C0000017  OBJROW     -21.          R0000000  43.         
    C0000017  R0000001  39.            R0000002   -50.       
    C0000017  R0000003   -9.           R0000004   -39.       
    C0000017  R0000005  25.            R0000006   -29.       
    C0000017  R0000007  31.            R0000008  39.         
    C0000017  R0000009  32.         
    C0000018  OBJROW     -40.          R0000000  1.          
    C0000018  R0000001   -26.          R0000002  14.         
    C0000018  R0000003  14.            R0000004  33.         
    C0000018  R0000006  21.         
    C0000019  OBJROW     -27.          R0000001   -8.        
    C0000019  R0000002   -1.           R0000003  24.         
    C0000019  R0000005   -27.          R0000007   -39.       
    C0000019  R0000008   -50.          R0000009  35.         
    C0000020  OBJROW     -15.          R0000000   -50.       
    C0000020  R0000001   -21.          R0000002   -17.       
    C0000020  R0000003   -23.          R0000004   -15.       
    C0000020  R0000005   -38.          R0000006   -31.       
    C0000020  R0000007   -9.        
    C0000021  OBJROW    30.            R0000001   -31.       
    C0000021  R0000002   -26.          R0000003  30.         
    C0000021  R0000005   -49.          R0000006   -42.       
    C0000021  R0000007  24.            R0000008   -39.       
    C0000021  R0000009   -4.        
    C0000022  OBJROW     -46.          R0000000  11.         
    C0000022  R0000001  11.            R0000002  3.          
    C0000022  R0000003   -43.          R0000008  37.         
    C0000023  OBJROW     -7.           R0000001   -30.       
    C0000023  R0000002  32.            R0000003  6.          
    C0000023  R0000004   -19.          R0000005  12.         
    C0000023  R0000006   -47.          R0000007   -10.       
    C0000023  R0000008  13.            R0000009  11.         
    C0000024  OBJROW    32.            R0000000   -5.        
    C0000024  R0000001  9.             R0000002  22.         
    C0000024  R0000003   -41.          R0000004   -42.       
    C0000024  R0000005  42.            R0000006  12.         
    C0000024  R0000007   -7.        
    C0000025  OBJROW    12.            R0000001   -25.       
    C0000025  R0000002  50.            R0000005   -37.       
    C0000025  R0000007   -5.           R0000008   -31.       
    C0000026  OBJROW     -23.          R0000001  46.         
    C0000026  R0000002  35.            R0000003  34.         
    C0000026  R0000007  43.            R0000008   -15.       
    C0000027  OBJROW     -41.          R0000000   -11.       
    C0000027  R0000001  30.            R0000002  26.         
    C0000027  R0000003   -44.          R0000009  50.         
    C0000028  OBJROW     -49.          R0000000  15.         
    C0000028  R0000001   -20.          R0000002   -7.        
    C0000028  R0000003  50.            R0000004  33.         
    C0000028  R0000005  32.            R0000007   -7.        
    C0000028  R0000008   -30.          R0000009  22.         
    C0000029  OBJROW    37.            R0000000   -47.       
    C0000029  R0000001   -25.          R0000002   -32.       
    C0000029  R0000003  26.            R0000005  5.          
    C0000029  R0000007   -25.          R0000008   -33.       
    C0000029  R0000009  13.         
RHS
    RHS       R0000000  364.           R0000001  225.        
    RHS       R0000002   -205.         R0000003  473.        
    RHS       R0000004  25.            R0000005  76.         
    RHS       R0000006   -22.          R0000007   -123.      
    RHS       R0000008   -420.         R0000009  228.        
BOUNDS
 UI BOUND     C0000000  500.        
 UI BOUND     C0000001  500.        
 UI BOUND     C0000002  500.        
 UI BOUND     C0000003  500.        
 UI BOUND     C0000004  500.        
 UI BOUND     C0000005  500.        
 UI BOUND     C0000006  500.        
 UI BOUND     C0000007  500.        
 UI BOUND     C0000008  500.        
 UI BOUND     C0000009  500.        
 UI BOUND     C0000010  500.        
 UI BOUND     C0000011  500.        
 UI BOUND     C0000012  500.        
 UI BOUND     C0000013  500.        
 UI BOUND     C0000014  500.        
 UI BOUND     C0000015  500.        
 UI BOUND     C0000016  500.        
 UI BOUND     C0000017  500.        
 UI BOUND     C0000018  500.        
 UI BOUND     C0000019  500.        
 UI BOUND     C0000020  500.        
 UI BOUND     C0000021  500.        
 UI BOUND     C0000022  500.        
 UI BOUND     C0000023  500.        
 UI BOUND     C0000024  500.        
 UI BOUND     C0000025  500.        
 UI BOUND     C0000026  500.        
 UI BOUND     C0000027  500.        
 UI BOUND     C0000028  500.        
 UI BOUND     C0000029  500.        
ENDATA
