NAME          BLANK   
ROWS
 N  OBJROW
 L  R0000000
 L  R0000001
 L  R0000002
 L  R0000003
 L  R0000004
 L  R0000005
 L  R0000006
 L  R0000007
 L  R0000008
 L  R0000009
 L  R0000010
 L  R0000011
 L  R0000012
 L  R0000013
 L  R0000014
COLUMNS
    C0000000  OBJROW    40.            R0000000   -8.        
    C0000000  R0000002  20.            R0000003  29.         
    C0000000  R0000004  30.            R0000005   -10.       
    C0000000  R0000006   -22.          R0000009   -34.       
    C0000000  R0000010  33.            R0000012   -8.        
    C0000000  R0000013  23.            R0000014   -20.       
    C0000001  OBJROW     -3.           R0000000   -1.        
    C0000001  R0000002   -40.          R0000004  40.         
    C0000001  R0000006  21.            R0000007   -6.        
    C0000001  R0000011   -34.          R0000012  50.         
    C0000001  R0000013  14.            R0000014  11.         
    C0000002  OBJROW    35.            R0000000   -14.       
    C0000002  R0000001  29.            R0000002  39.         
    C0000002  R0000003   -33.          R0000004  14.         
    C0000002  R0000006  48.            R0000007   -47.       
    C0000002  R0000011   -26.          R0000012  9.          
    C0000002  R0000013  33.            R0000014  24.         
    C0000003  OBJROW    32.            R0000002   -39.       
    C0000003  R0000003   -17.          R0000004  5.          
    C0000003  R0000006  27.            R0000008  6.          
    C0000003  R0000009   -49.          R0000010   -11.       
    C0000003  R0000011  7.             R0000012   -15.       
    C0000003  R0000013   -46.          R0000014  20.         
    C0000004  OBJROW     -21.          R0000000  27.         
    C0000004  R0000001   -42.          R0000002  1.          
    C0000004  R0000003   -31.          R0000004  5.          
    C0000004  R0000006  7.             R0000007   -15.       
    C0000004  R0000008   -38.          R0000009  19.         
    C0000004  R0000010  31.            R0000012   -5.        
    C0000004  R0000013  19.            R0000014   -38.       
    C0000005  OBJROW     -22.          R0000000   -15.       
    C0000005  R0000002  14.            R0000003   -2.        
    C0000005  R0000004   -47.          R0000006   -41.       
    C0000005  R0000007   -27.          R0000008   -43.       
    C0000005  R0000011   -15.          R0000013   -15.       
    C0000005  R0000014   -46.       
    C0000006  OBJROW     -16.          R0000000  28.         
    C0000006  R0000001   -19.          R0000002   -11.       
    C0000006  R0000003  36.            R0000004  28.         
    C0000006  R0000005   -49.          R0000007  25.         
    C0000006  R0000009  46.            R0000011   -45.       
    C0000006  R0000012   -48.          R0000014   -3.        
    C0000007  OBJROW    25.            R0000000   -43.       
    C0000007  R0000002   -20.          R0000003  10.         
    C0000007  R0000004  19.            R0000005  46.         
    C0000007  R0000007  13.            R0000010   -8.        
    C0000007  R0000012   -33.          R0000013  30.         
    C0000007  R0000014  30.         
    C0000008  OBJROW     -32.          R0000000   -25.       
    C0000008  R0000002   -12.          R0000003  18.         
    C0000008  R0000004   -40.          R0000005  38.         
    C0000008  R0000007   -20.          R0000008   -45.       
    C0000008  R0000009  43.            R0000010  32.         
    C0000008  R0000011  41.            R0000012   -3.        
    C0000008  R0000013  27.            R0000014   -22.       
    C0000009  OBJROW     -39.          R0000000   -28.       
    C0000009  R0000004  25.            R0000009  50.         
    C0000009  R0000010   -41.          R0000011  48.         
    C0000009  R0000013  30.            R0000014  10.         
    C0000010  OBJROW     -48.          R0000000   -36.       
    C0000010  R0000001  36.            R0000002  15.         
    C0000010  R0000003  5.             R0000004  27.         
    C0000010  R0000006  44.            R0000007   -30.       
    C0000010  R0000008  27.            R0000009  14.         
    C0000010  R0000010   -8.           R0000011  47.         
    C0000010  R0000012   -37.          R0000013  49.         
    C0000010  R0000014   -10.       
    C0000011  OBJROW    39.            R0000002  12.         
    C0000011  R0000003   -7.           R0000004   -31.       
    C0000011  R0000008   -40.          R0000009  21.         
    C0000011  R0000012  4.             R0000013  49.         
    C0000011  R0000014   -8.        
    C0000012  OBJROW     -41.          R0000001   -7.        
    C0000012  R0000002   -8.           R0000004  38.         
    C0000012  R0000005   -4.           R0000007  1.          
    C0000012  R0000011  29.            R0000012  48.         
    C0000012  R0000014   -6.        
    C0000013  OBJROW    27.            R0000000   -47.       
    C0000013  R0000001  27.            R0000002  38.         
    C0000013  R0000003  10.            R0000004   -35.       
    C0000013  R0000005  1.             R0000006   -37.       
    C0000013  R0000009   -1.           R0000010  23.         
    C0000013  R0000011   -19.          R0000014  34.         
    C0000014  OBJROW     -4.           R0000000   -4.        
    C0000014  R0000002  21.            R0000003  30.         
    C0000014  R0000004   -37.          R0000005  49.         
    C0000014  R0000006  19.            R0000008  33.         
    C0000014  R0000009  27.            R0000010   -48.       
    C0000014  R0000011   -29.          R0000012  37.         
    C0000014  R0000013   -4.           R0000014   -5.        
    C0000015  OBJROW     -27.          R0000000  35.         
    C0000015  R0000001  3.             R0000002   -13.       
    C0000015  R0000003   -20.          R0000004   -22.       
    C0000015  R0000005   -47.          R0000007  5.          
    C0000015  R0000009   -50.          R0000010   -48.       
    C0000015  R0000011  37.            R0000012   -13.       
    C0000015  R0000013  5.             R0000014  2.          
    C0000016  OBJROW    36.            R0000000  35.         
    C0000016  R0000003   -18.          R0000004  33.         
    C0000016  R0000006  36.            R0000007   -49.       
    C0000016  R0000012   -3.           R0000013   -29.       
    C0000016  R0000014  34.         
    C0000017  OBJROW     -44.          R0000001  14.         
    C0000017  R0000002  13.            R0000004   -29.       
    C0000017  R0000007  22.            R0000008   -46.       
    C0000017  R0000009  39.            R0000011  13.         
    C0000017  R0000012   -20.          R0000013   -47.       
    C0000017  R0000014  27.         
    C0000018  OBJROW    15.            R0000000  35.         
    C0000018  R0000002   -1.           R0000004  48.         
    C0000018  R0000007  26.            R0000009   -11.       
    C0000018  R0000011  23.            R0000012  37.         
    C0000018  R0000013   -18.          R0000014   -6.        
    C0000019  OBJROW     -9.           R0000004  45.         
    C0000019  R0000005   -43.          R0000006   -23.       
    C0000019  R0000007  12.            R0000009   -1.        
    C0000019  R0000011  20.            R0000012  42.         
    C0000019  R0000013   -11.       
    C0000020  OBJROW     -32.          R0000000  43.         
    C0000020  R0000001   -32.          R0000003   -14.       
    C0000020  R0000004  33.            R0000005  2.          
    C0000020  R0000007   -21.          R0000008   -1.        
    C0000020  R0000009   -50.          R0000011  24.         
    C0000020  R0000014   -18.       
    C0000021  OBJROW    46.            R0000000  7.          
    C0000021  R0000003   -40.          R0000004  23.         
    C0000021  R0000005  37.            R0000007  37.         
    C0000021  R0000008  5.             R0000009  22.         
    C0000021  R0000011   -9.           R0000012  39.         
    C0000021  R0000014  42.         
    C0000022  OBJROW    30.            R0000000   -35.       
    C0000022  R0000002  18.            R0000004  38.         
    C0000022  R0000008  32.            R0000010  41.         
    C0000022  R0000011  25.            R0000013   -21.       
    C0000022  R0000014  4.          
    C0000023  OBJROW     -29.          R0000000   -45.       
    C0000023  R0000001   -41.          R0000002   -50.       
    C0000023  R0000005   -26.          R0000006   -35.       
    C0000023  R0000007  30.            R0000008   -30.       
    C0000023  R0000009  29.            R0000010   -27.       
    C0000023  R0000011  25.            R0000012   -18.       
    C0000023  R0000014   -4.        
    C0000024  OBJROW     -18.          R0000000  27.         
    C0000024  R0000002   -11.          R0000003  24.         
    C0000024  R0000004  46.            R0000007  21.         
    C0000024  R0000012  33.            R0000013  2.          
    C0000024  R0000014  23.         
    C0000025  OBJROW    17.            R0000000  1.          
    C0000025  R0000001  28.            R0000002   -17.       
    C0000025  R0000003  39.            R0000004   -22.       
    C0000025  R0000006  20.            R0000007  22.         
    C0000025  R0000008  6.             R0000009  22.         
    C0000025  R0000010  34.            R0000011  48.         
    C0000025  R0000012   -48.          R0000013  23.         
    C0000025  R0000014   -20.       
    C0000026  OBJROW    19.            R0000000   -40.       
    C0000026  R0000001  37.            R0000002   -6.        
    C0000026  R0000003   -2.           R0000004  20.         
    C0000026  R0000006   -10.          R0000007  47.         
    C0000026  R0000008  5.             R0000011  10.         
    C0000026  R0000012  18.            R0000013   -19.       
    C0000026  R0000014   -1.        
    C0000027  OBJROW    44.            R0000000  8.          
    C0000027  R0000002   -8.           R0000003  10.         
    C0000027  R0000004   -15.          R0000005  8.          
    C0000027  R0000006  27.            R0000007   -17.       
    C0000027  R0000009  37.            R0000010  11.         
    C0000027  R0000011  13.            R0000012  44.         
    C0000027  R0000013   -46.          R0000014   -15.       
    C0000028  OBJROW    41.            R0000000   -23.       
    C0000028  R0000002  36.            R0000003   -6.        
    C0000028  R0000004  2.             R0000005   -36.       
    C0000028  R0000006  46.            R0000008  5.          
    C0000028  R0000009   -24.          R0000010  25.         
    C0000028  R0000011   -15.          R0000012   -24.       
    C0000028  R0000013  40.            R0000014  20.         
    C0000029  OBJROW     -28.          R0000000   -2.        
    C0000029  R0000002   -14.          R0000003  1.          
    C0000029  R0000004  18.            R0000005  46.         
    C0000029  R0000006  26.            R0000007  7.          
    C0000029  R0000010   -34.          R0000011   -27.       
    C0000029  R0000012  29.            R0000014  28.         
RHS
    RHS       R0000000   -873.         R0000001  112.        
    RHS       R0000002   -134.         R0000003  367.        
    RHS       R0000004   -43.          R0000005  511.        
    RHS       R0000006  457.           R0000007   -369.      
    RHS       R0000008   -132.         R0000009  421.        
    RHS       R0000010  106.           R0000011  268.        
    RHS       R0000012  163.           R0000013  349.        
    RHS       R0000014   -211.      
BOUNDS
 UI BOUND     C0000000  500.        
 UI BOUND     C0000001  500.        
 UI BOUND     C0000002  500.        
 UI BOUND     C0000003  500.        
 UI BOUND     C0000004  500.        
 UI BOUND     C0000005  500.        
 UI BOUND     C0000006  500.        
 UI BOUND     C0000007  500.        
 UI BOUND     C0000008  500.        
 UI BOUND     C0000009  500.        
 UI BOUND     C0000010  500.        
 UI BOUND     C0000011  500.        
 UI BOUND     C0000012  500.        
 UI BOUND     C0000013  500.        
 UI BOUND     C0000014  500.        
 UI BOUND     C0000015  500.        
 UI BOUND     C0000016  500.        
 UI BOUND     C0000017  500.        
 UI BOUND     C0000018  500.        
 UI BOUND     C0000019  500.        
 UI BOUND     C0000020  500.        
 UI BOUND     C0000021  500.        
 UI BOUND     C0000022  500.        
 UI BOUND     C0000023  500.        
 UI BOUND     C0000024  500.        
 UI BOUND     C0000025  500.        
 UI BOUND     C0000026  500.        
 UI BOUND     C0000027  500.        
 UI BOUND     C0000028  500.        
 UI BOUND     C0000029  500.        
ENDATA
