NAME          BLANK   
ROWS
 N  OBJROW
 L  R0000000
 L  R0000001
 L  R0000002
 L  R0000003
 L  R0000004
 L  R0000005
 L  R0000006
 L  R0000007
 L  R0000008
 L  R0000009
COLUMNS
    C0000000  OBJROW    29.            R0000000   -34.       
    C0000000  R0000001  4.             R0000002  26.         
    C0000000  R0000003  2.             R0000004   -24.       
    C0000000  R0000007   -25.          R0000008   -1.        
    C0000001  OBJROW     -11.          R0000002   -4.        
    C0000001  R0000003  36.            R0000004   -30.       
    C0000001  R0000006  39.            R0000008   -17.       
    C0000002  OBJROW     -9.           R0000000   -3.        
    C0000002  R0000003   -15.          R0000004   -39.       
    C0000002  R0000006   -34.          R0000007   -10.       
    C0000002  R0000008   -40.       
    C0000003  OBJROW     -39.          R0000001   -5.        
    C0000003  R0000004  8.             R0000006  31.         
    C0000003  R0000007   -29.          R0000008  24.         
    C0000003  R0000009   -48.       
    C0000004  OBJROW     -2.           R0000000  45.         
    C0000004  R0000001   -6.           R0000002   -38.       
    C0000004  R0000003  5.             R0000004  34.         
    C0000004  R0000006   -8.           R0000007  46.         
    C0000004  R0000008  31.         
    C0000005  OBJROW    5.             R0000000   -45.       
    C0000005  R0000003  10.            R0000004  6.          
    C0000005  R0000006   -27.          R0000007   -28.       
    C0000005  R0000008  27.            R0000009   -42.       
    C0000006  OBJROW    31.            R0000003  15.         
    C0000006  R0000004  31.            R0000006  27.         
    C0000006  R0000007   -2.           R0000008  27.         
    C0000006  R0000009  24.         
    C0000007  OBJROW    20.            R0000000  15.         
    C0000007  R0000001   -4.           R0000003  33.         
    C0000007  R0000004   -4.           R0000005  37.         
    C0000007  R0000006  36.            R0000007   -2.        
    C0000007  R0000008   -50.          R0000009   -27.       
    C0000008  OBJROW    36.            R0000000   -37.       
    C0000008  R0000001   -36.          R0000002  35.         
    C0000008  R0000003  13.            R0000004   -6.        
    C0000008  R0000005   -12.          R0000006   -45.       
    C0000008  R0000007   -18.       
    C0000009  OBJROW     -8.           R0000001  28.         
    C0000009  R0000002   -48.          R0000004  40.         
    C0000009  R0000007   -36.          R0000008   -22.       
    C0000010  OBJROW    12.            R0000003  28.         
    C0000010  R0000004  35.            R0000005  28.         
    C0000010  R0000007  21.            R0000008   -23.       
    C0000011  OBJROW    13.            R0000000  12.         
    C0000011  R0000001   -3.           R0000002  12.         
    C0000011  R0000003  5.             R0000005   -7.        
    C0000011  R0000006   -31.          R0000007  1.          
    C0000011  R0000008  29.            R0000009  13.         
    C0000012  OBJROW    41.            R0000000   -4.        
    C0000012  R0000003   -44.          R0000004   -33.       
    C0000012  R0000005   -10.          R0000006   -8.        
    C0000012  R0000008  2.          
    C0000013  OBJROW     -22.          R0000000   -36.       
    C0000013  R0000002   -15.          R0000003   -10.       
    C0000013  R0000004   -10.          R0000006  46.         
    C0000013  R0000007   -47.          R0000008   -11.       
    C0000014  OBJROW    31.            R0000000   -22.       
    C0000014  R0000001  26.            R0000003   -20.       
    C0000014  R0000004  21.            R0000006   -8.        
    C0000014  R0000007   -13.          R0000009  32.         
    C0000015  OBJROW    36.            R0000000   -12.       
    C0000015  R0000001  34.            R0000003   -13.       
    C0000015  R0000006   -37.          R0000007   -3.        
    C0000015  R0000008  1.          
    C0000016  OBJROW    38.            R0000000   -40.       
    C0000016  R0000001  44.            R0000002  33.         
    C0000016  R0000004  31.            R0000007  47.         
    C0000016  R0000009  29.         
    C0000017  OBJROW     -43.          R0000000  44.         
    C0000017  R0000002  48.            R0000003   -43.       
    C0000017  R0000005   -38.          R0000006   -50.       
    C0000017  R0000007   -36.          R0000008   -30.       
    C0000017  R0000009   -21.       
    C0000018  OBJROW     -28.          R0000000   -20.       
    C0000018  R0000002  44.            R0000003  10.         
    C0000018  R0000004  50.            R0000005   -7.        
    C0000018  R0000007  26.            R0000008   -15.       
    C0000018  R0000009  16.         
    C0000019  OBJROW     -30.          R0000000   -27.       
    C0000019  R0000001  35.            R0000003  18.         
    C0000019  R0000004  35.            R0000006  33.         
    C0000019  R0000007   -12.       
RHS
    RHS       R0000000   -337.         R0000001  216.        
    RHS       R0000002  77.            R0000003  73.         
    RHS       R0000004  350.           R0000005   -40.       
    RHS       R0000006  189.           R0000007   -37.       
    RHS       R0000008  343.           R0000009  221.        
BOUNDS
 UI BOUND     C0000000  500.        
 UI BOUND     C0000001  500.        
 UI BOUND     C0000002  500.        
 UI BOUND     C0000003  500.        
 UI BOUND     C0000004  500.        
 UI BOUND     C0000005  500.        
 UI BOUND     C0000006  500.        
 UI BOUND     C0000007  500.        
 UI BOUND     C0000008  500.        
 UI BOUND     C0000009  500.        
 UI BOUND     C0000010  500.        
 UI BOUND     C0000011  500.        
 UI BOUND     C0000012  500.        
 UI BOUND     C0000013  500.        
 UI BOUND     C0000014  500.        
 UI BOUND     C0000015  500.        
 UI BOUND     C0000016  500.        
 UI BOUND     C0000017  500.        
 UI BOUND     C0000018  500.        
 UI BOUND     C0000019  500.        
ENDATA
