NAME          BLANK   
ROWS
 N  OBJROW
 L  R0000000
 L  R0000001
 L  R0000002
 L  R0000003
 L  R0000004
 L  R0000005
 L  R0000006
 L  R0000007
 L  R0000008
 L  R0000009
 L  R0000010
 L  R0000011
 L  R0000012
 L  R0000013
 L  R0000014
COLUMNS
    C0000000  OBJROW     -30.          R0000000   -11.       
    C0000000  R0000002  43.            R0000003  25.         
    C0000000  R0000004  26.            R0000007   -39.       
    C0000000  R0000008  5.             R0000009  8.          
    C0000000  R0000010   -12.          R0000012   -12.       
    C0000000  R0000013   -44.          R0000014   -37.       
    C0000001  OBJROW    33.            R0000001   -50.       
    C0000001  R0000002  6.             R0000003   -37.       
    C0000001  R0000005   -44.          R0000006   -15.       
    C0000001  R0000007   -10.          R0000008  5.          
    C0000001  R0000009  29.            R0000010  18.         
    C0000001  R0000011   -21.          R0000012  29.         
    C0000001  R0000013   -31.       
    C0000002  OBJROW    43.            R0000000   -39.       
    C0000002  R0000001  20.            R0000002   -6.        
    C0000002  R0000003   -46.          R0000004  5.          
    C0000002  R0000005  29.            R0000007  34.         
    C0000002  R0000008   -27.          R0000011  20.         
    C0000002  R0000012  14.            R0000013  2.          
    C0000002  R0000014   -24.       
    C0000003  OBJROW     -43.          R0000000  22.         
    C0000003  R0000003  10.            R0000004  26.         
    C0000003  R0000005  38.            R0000007  21.         
    C0000003  R0000010   -26.          R0000011  25.         
    C0000003  R0000012  37.            R0000013  42.         
    C0000004  OBJROW    35.            R0000000  4.          
    C0000004  R0000001  43.            R0000002   -12.       
    C0000004  R0000003   -4.           R0000004   -26.       
    C0000004  R0000007   -50.          R0000012   -19.       
    C0000005  OBJROW    40.            R0000002   -40.       
    C0000005  R0000003  6.             R0000004   -26.       
    C0000005  R0000005  22.            R0000007  2.          
    C0000005  R0000010  44.            R0000012  27.         
    C0000005  R0000013   -22.          R0000014  36.         
    C0000006  OBJROW    35.            R0000000  43.         
    C0000006  R0000001   -14.          R0000002  34.         
    C0000006  R0000003   -23.          R0000004  26.         
    C0000006  R0000006  42.            R0000007   -41.       
    C0000006  R0000009  26.            R0000011   -43.       
    C0000006  R0000012   -13.          R0000014   -12.       
    C0000007  OBJROW    26.            R0000000   -19.       
    C0000007  R0000003  9.             R0000004   -23.       
    C0000007  R0000005   -27.          R0000006  28.         
    C0000007  R0000007  20.            R0000008   -10.       
    C0000007  R0000010  6.             R0000012   -8.        
    C0000007  R0000014  24.         
    C0000008  OBJROW    39.            R0000001  22.         
    C0000008  R0000002   -49.          R0000004  48.         
    C0000008  R0000006  44.            R0000007   -48.       
    C0000008  R0000008   -19.          R0000009   -4.        
    C0000008  R0000010   -2.           R0000012  39.         
    C0000008  R0000013   -42.       
    C0000009  OBJROW     -28.          R0000000   -22.       
    C0000009  R0000001  39.            R0000002   -12.       
    C0000009  R0000003   -5.           R0000004   -6.        
    C0000009  R0000005  42.            R0000006   -47.       
    C0000009  R0000007   -6.           R0000008  27.         
    C0000009  R0000011   -42.          R0000012  9.          
    C0000009  R0000013   -40.       
    C0000010  OBJROW    13.            R0000001  48.         
    C0000010  R0000002   -29.          R0000003  20.         
    C0000010  R0000007  27.            R0000010   -39.       
    C0000010  R0000011  21.            R0000012  30.         
    C0000010  R0000013   -21.          R0000014   -3.        
    C0000011  OBJROW    26.            R0000000   -20.       
    C0000011  R0000002  11.            R0000003  44.         
    C0000011  R0000004  37.            R0000005  13.         
    C0000011  R0000006   -19.          R0000007   -45.       
    C0000011  R0000008  40.            R0000009   -18.       
    C0000011  R0000011   -24.          R0000012  14.         
    C0000011  R0000013   -16.       
    C0000012  OBJROW    2.             R0000000   -44.       
    C0000012  R0000006  25.            R0000007  11.         
    C0000012  R0000008   -42.          R0000009  50.         
    C0000012  R0000012   -38.          R0000013  37.         
    C0000012  R0000014  7.          
    C0000013  OBJROW    1.             R0000000  13.         
    C0000013  R0000002  48.            R0000004  19.         
    C0000013  R0000007  26.            R0000008  40.         
    C0000013  R0000009  2.             R0000010   -43.       
    C0000013  R0000011  44.            R0000012   -45.       
    C0000013  R0000013  32.            R0000014  31.         
    C0000014  OBJROW     -13.          R0000000   -20.       
    C0000014  R0000002   -10.          R0000003   -31.       
    C0000014  R0000004  39.            R0000005  9.          
    C0000014  R0000006  43.            R0000007   -43.       
    C0000014  R0000009   -2.           R0000010   -50.       
    C0000014  R0000012  26.            R0000013  2.          
    C0000015  OBJROW     -33.          R0000001  44.         
    C0000015  R0000003  26.            R0000004  34.         
    C0000015  R0000006  34.            R0000007  36.         
    C0000015  R0000008   -37.          R0000012   -22.       
    C0000015  R0000013   -15.       
    C0000016  OBJROW    34.            R0000000  20.         
    C0000016  R0000003   -15.          R0000004  36.         
    C0000016  R0000006  16.            R0000007  8.          
    C0000016  R0000008  15.            R0000009  24.         
    C0000016  R0000011   -5.           R0000012  34.         
    C0000016  R0000013  30.         
    C0000017  OBJROW     -28.          R0000000  44.         
    C0000017  R0000002   -1.           R0000003  43.         
    C0000017  R0000005   -31.          R0000006   -23.       
    C0000017  R0000008   -27.          R0000010   -6.        
    C0000017  R0000011   -29.          R0000012  20.         
    C0000017  R0000013  1.             R0000014   -9.        
    C0000018  OBJROW     -19.          R0000000   -10.       
    C0000018  R0000001   -25.          R0000002  41.         
    C0000018  R0000003   -16.          R0000004   -36.       
    C0000018  R0000007  43.            R0000008  46.         
    C0000018  R0000012   -3.           R0000013  3.          
    C0000018  R0000014  11.         
    C0000019  OBJROW     -30.          R0000000   -10.       
    C0000019  R0000002  36.            R0000003  25.         
    C0000019  R0000004   -25.          R0000005   -4.        
    C0000019  R0000006  32.            R0000007   -50.       
    C0000019  R0000008  4.             R0000010   -30.       
    C0000019  R0000011   -32.          R0000012  36.         
    C0000019  R0000013  41.            R0000014   -44.       
    C0000020  OBJROW     -6.           R0000002   -23.       
    C0000020  R0000003   -2.           R0000004  29.         
    C0000020  R0000005  41.            R0000007  30.         
    C0000020  R0000008  12.            R0000010   -23.       
    C0000020  R0000011  28.            R0000012   -4.        
    C0000020  R0000013  24.         
    C0000021  OBJROW    7.             R0000002   -8.        
    C0000021  R0000003  2.             R0000004  28.         
    C0000021  R0000005   -32.          R0000008   -46.       
    C0000021  R0000009  13.            R0000010   -30.       
    C0000021  R0000011  20.            R0000012   -4.        
    C0000021  R0000013   -22.          R0000014  10.         
    C0000022  OBJROW     -34.          R0000000  20.         
    C0000022  R0000002   -30.          R0000004  34.         
    C0000022  R0000006  9.             R0000007  42.         
    C0000022  R0000008  6.             R0000010  39.         
    C0000022  R0000011  29.            R0000012   -20.       
    C0000022  R0000014   -39.       
    C0000023  OBJROW     -42.          R0000000   -8.        
    C0000023  R0000001  17.            R0000002   -7.        
    C0000023  R0000004  23.            R0000005  43.         
    C0000023  R0000006  48.            R0000007   -24.       
    C0000023  R0000008  42.            R0000011  23.         
    C0000023  R0000012   -46.          R0000013   -10.       
    C0000024  OBJROW    24.            R0000000   -5.        
    C0000024  R0000001   -36.          R0000002   -48.       
    C0000024  R0000004  33.            R0000006  3.          
    C0000024  R0000007   -46.          R0000008   -20.       
    C0000024  R0000009   -21.          R0000010  3.          
    C0000024  R0000012   -20.          R0000013   -36.       
    C0000024  R0000014   -44.       
    C0000025  OBJROW    30.            R0000002   -6.        
    C0000025  R0000005   -28.          R0000007   -24.       
    C0000025  R0000008   -15.          R0000009  47.         
    C0000025  R0000010   -32.          R0000012  36.         
    C0000025  R0000013   -42.       
    C0000026  OBJROW    19.            R0000000  5.          
    C0000026  R0000002   -30.          R0000003  15.         
    C0000026  R0000006   -44.          R0000007   -33.       
    C0000026  R0000008   -18.          R0000012   -26.       
    C0000026  R0000014  23.         
    C0000027  OBJROW     -39.          R0000001   -43.       
    C0000027  R0000002   -8.           R0000004   -16.       
    C0000027  R0000005   -10.          R0000006   -4.        
    C0000027  R0000007  17.            R0000009   -43.       
    C0000027  R0000012  46.         
    C0000028  OBJROW    24.            R0000001   -23.       
    C0000028  R0000002  14.            R0000003  11.         
    C0000028  R0000004  31.            R0000005  13.         
    C0000028  R0000006   -44.          R0000007  17.         
    C0000028  R0000008   -25.          R0000012  33.         
    C0000028  R0000013  14.            R0000014   -33.       
    C0000029  OBJROW    1.             R0000002   -29.       
    C0000029  R0000003   -12.          R0000004  48.         
    C0000029  R0000005   -6.           R0000006   -39.       
    C0000029  R0000007  29.            R0000009  6.          
    C0000029  R0000011  20.            R0000012   -11.       
    C0000029  R0000013  36.         
RHS
    RHS       R0000000   -44.          R0000001   -257.      
    RHS       R0000002   -602.         R0000003  216.        
    RHS       R0000004  771.           R0000005   -392.      
    RHS       R0000006  336.           R0000007   -423.      
    RHS       R0000008   -630.         R0000009  468.        
    RHS       R0000010   -294.         R0000011  182.        
    RHS       R0000012  626.           R0000013   -754.      
    RHS       R0000014   -571.      
BOUNDS
 UI BOUND     C0000000  500.        
 UI BOUND     C0000001  500.        
 UI BOUND     C0000002  500.        
 UI BOUND     C0000003  500.        
 UI BOUND     C0000004  500.        
 UI BOUND     C0000005  500.        
 UI BOUND     C0000006  500.        
 UI BOUND     C0000007  500.        
 UI BOUND     C0000008  500.        
 UI BOUND     C0000009  500.        
 UI BOUND     C0000010  500.        
 UI BOUND     C0000011  500.        
 UI BOUND     C0000012  500.        
 UI BOUND     C0000013  500.        
 UI BOUND     C0000014  500.        
 UI BOUND     C0000015  500.        
 UI BOUND     C0000016  500.        
 UI BOUND     C0000017  500.        
 UI BOUND     C0000018  500.        
 UI BOUND     C0000019  500.        
 UI BOUND     C0000020  500.        
 UI BOUND     C0000021  500.        
 UI BOUND     C0000022  500.        
 UI BOUND     C0000023  500.        
 UI BOUND     C0000024  500.        
 UI BOUND     C0000025  500.        
 UI BOUND     C0000026  500.        
 UI BOUND     C0000027  500.        
 UI BOUND     C0000028  500.        
 UI BOUND     C0000029  500.        
ENDATA
