NAME          BLANK   
ROWS
 N  OBJROW
 L  R0000000
 L  R0000001
 L  R0000002
 L  R0000003
 L  R0000004
 L  R0000005
 L  R0000006
 L  R0000007
 L  R0000008
 L  R0000009
 L  R0000010
 L  R0000011
 L  R0000012
 L  R0000013
 L  R0000014
COLUMNS
    C0000000  OBJROW    41.            R0000000  44.         
    C0000000  R0000002   -23.          R0000004  4.          
    C0000000  R0000005  43.            R0000006  19.         
    C0000000  R0000008   -40.          R0000010   -33.       
    C0000000  R0000011  39.            R0000012   -1.        
    C0000000  R0000014   -37.       
    C0000001  OBJROW     -5.           R0000000   -39.       
    C0000001  R0000002   -6.           R0000004  22.         
    C0000001  R0000005  15.            R0000006  20.         
    C0000001  R0000008   -12.          R0000009  28.         
    C0000001  R0000010   -3.           R0000011  42.         
    C0000001  R0000014  7.          
    C0000002  OBJROW     -13.          R0000000  2.          
    C0000002  R0000002   -10.          R0000003   -21.       
    C0000002  R0000004   -11.          R0000006   -26.       
    C0000002  R0000007   -9.           R0000008  15.         
    C0000002  R0000011   -1.           R0000012   -4.        
    C0000002  R0000013  36.            R0000014   -45.       
    C0000003  OBJROW    49.            R0000000   -34.       
    C0000003  R0000002  30.            R0000003   -34.       
    C0000003  R0000004  11.            R0000006  14.         
    C0000003  R0000007  39.            R0000008  22.         
    C0000003  R0000009  23.            R0000010  21.         
    C0000003  R0000011  47.            R0000012  34.         
    C0000003  R0000013   -6.           R0000014  16.         
    C0000004  OBJROW     -33.          R0000000   -8.        
    C0000004  R0000003  28.            R0000004   -24.       
    C0000004  R0000005  13.            R0000006   -44.       
    C0000004  R0000007   -8.           R0000010   -1.        
    C0000004  R0000011   -36.          R0000014  2.          
    C0000005  OBJROW     -23.          R0000000   -36.       
    C0000005  R0000002  20.            R0000004   -44.       
    C0000005  R0000005  8.             R0000006  28.         
    C0000005  R0000008   -50.          R0000009  30.         
    C0000005  R0000010   -29.          R0000011  40.         
    C0000005  R0000012   -11.          R0000013  38.         
    C0000005  R0000014   -7.        
    C0000006  OBJROW     -41.          R0000004   -43.       
    C0000006  R0000005  28.            R0000006   -7.        
    C0000006  R0000010  3.             R0000012   -6.        
    C0000006  R0000014   -15.       
    C0000007  OBJROW     -29.          R0000000  34.         
    C0000007  R0000002   -33.          R0000004  23.         
    C0000007  R0000006   -14.          R0000007  42.         
    C0000007  R0000008  41.            R0000010  12.         
    C0000007  R0000011   -47.          R0000012  31.         
    C0000007  R0000013   -33.          R0000014   -44.       
    C0000008  OBJROW     -45.          R0000000   -24.       
    C0000008  R0000001  33.            R0000002  33.         
    C0000008  R0000005   -25.          R0000006  44.         
    C0000008  R0000007  43.            R0000009  21.         
    C0000008  R0000010  44.            R0000011   -7.        
    C0000008  R0000012  38.            R0000013   -39.       
    C0000008  R0000014   -18.       
    C0000009  OBJROW    22.            R0000000   -38.       
    C0000009  R0000001  16.            R0000004   -11.       
    C0000009  R0000005  29.            R0000006   -20.       
    C0000009  R0000008  17.            R0000010  27.         
    C0000009  R0000012  32.            R0000013  10.         
    C0000009  R0000014  13.         
    C0000010  OBJROW     -40.          R0000000   -2.        
    C0000010  R0000002  38.            R0000004   -47.       
    C0000010  R0000006  45.            R0000008   -14.       
    C0000010  R0000009   -46.          R0000010  32.         
    C0000010  R0000012   -30.          R0000013   -46.       
    C0000010  R0000014   -42.       
    C0000011  OBJROW     -5.           R0000001   -19.       
    C0000011  R0000002   -26.          R0000004  36.         
    C0000011  R0000005  21.            R0000006   -20.       
    C0000011  R0000007   -9.           R0000008   -11.       
    C0000011  R0000009   -18.          R0000010   -30.       
    C0000011  R0000014   -3.        
    C0000012  OBJROW    11.            R0000000  43.         
    C0000012  R0000001   -40.          R0000002  31.         
    C0000012  R0000004   -4.           R0000005   -45.       
    C0000012  R0000006  5.             R0000008  40.         
    C0000012  R0000009   -12.          R0000011  5.          
    C0000012  R0000012  44.            R0000013  27.         
    C0000012  R0000014  46.         
    C0000013  OBJROW    39.            R0000000  41.         
    C0000013  R0000002  39.            R0000003   -4.        
    C0000013  R0000004   -32.          R0000005  23.         
    C0000013  R0000006   -1.           R0000007   -6.        
    C0000013  R0000009  8.             R0000010  46.         
    C0000013  R0000011   -18.          R0000012   -15.       
    C0000013  R0000014   -15.       
    C0000014  OBJROW     -43.          R0000000  21.         
    C0000014  R0000001  23.            R0000002  21.         
    C0000014  R0000004   -12.          R0000005   -44.       
    C0000014  R0000006  27.            R0000007   -29.       
    C0000014  R0000008   -36.          R0000009  25.         
    C0000014  R0000010  43.            R0000012  8.          
    C0000014  R0000013   -48.          R0000014   -41.       
    C0000015  OBJROW    6.             R0000000  18.         
    C0000015  R0000001   -34.          R0000002  11.         
    C0000015  R0000003  5.             R0000004  22.         
    C0000015  R0000006   -20.          R0000007  27.         
    C0000015  R0000008  7.             R0000009   -18.       
    C0000015  R0000010  40.            R0000013  43.         
    C0000015  R0000014   -41.       
    C0000016  OBJROW    5.             R0000000  7.          
    C0000016  R0000002  13.            R0000003  19.         
    C0000016  R0000004  3.             R0000006  42.         
    C0000016  R0000010   -39.          R0000012  39.         
    C0000016  R0000013   -10.          R0000014  44.         
    C0000017  OBJROW    31.            R0000000  42.         
    C0000017  R0000001  32.            R0000004   -21.       
    C0000017  R0000005  21.            R0000006  46.         
    C0000017  R0000010  45.            R0000011   -22.       
    C0000017  R0000012  39.            R0000013   -9.        
    C0000017  R0000014   -13.       
    C0000018  OBJROW     -47.          R0000000   -42.       
    C0000018  R0000002  19.            R0000003  19.         
    C0000018  R0000004   -48.          R0000006   -4.        
    C0000018  R0000007   -34.          R0000010  26.         
    C0000018  R0000011   -6.           R0000012  25.         
    C0000019  OBJROW    26.            R0000000   -5.        
    C0000019  R0000002   -27.          R0000004   -30.       
    C0000019  R0000008   -31.          R0000011  17.         
    C0000019  R0000013   -46.          R0000014   -32.       
    C0000020  OBJROW    29.            R0000000  8.          
    C0000020  R0000003  15.            R0000004  2.          
    C0000020  R0000005   -31.          R0000006   -19.       
    C0000020  R0000009   -33.          R0000011   -44.       
    C0000020  R0000012  11.            R0000013  43.         
    C0000021  OBJROW    33.            R0000000   -44.       
    C0000021  R0000001  50.            R0000002   -30.       
    C0000021  R0000004  45.            R0000005  5.          
    C0000021  R0000006   -37.          R0000007   -11.       
    C0000021  R0000012  46.            R0000013  30.         
    C0000021  R0000014   -40.       
    C0000022  OBJROW     -49.          R0000000  13.         
    C0000022  R0000002  18.            R0000004  35.         
    C0000022  R0000005  8.             R0000006  9.          
    C0000022  R0000007  18.            R0000009   -22.       
    C0000022  R0000010  27.            R0000011   -12.       
    C0000022  R0000012   -48.          R0000013   -36.       
    C0000022  R0000014  11.         
    C0000023  OBJROW    21.            R0000000   -42.       
    C0000023  R0000003  44.            R0000004  26.         
    C0000023  R0000005   -10.          R0000006   -31.       
    C0000023  R0000008   -11.          R0000009   -4.        
    C0000023  R0000010   -20.          R0000011   -10.       
    C0000023  R0000012   -43.          R0000014   -50.       
    C0000024  OBJROW     -41.          R0000000  48.         
    C0000024  R0000002  22.            R0000003   -14.       
    C0000024  R0000004  46.            R0000005  16.         
    C0000024  R0000006   -42.          R0000007  50.         
    C0000024  R0000008  44.            R0000010   -43.       
    C0000024  R0000011   -8.           R0000012   -32.       
    C0000024  R0000014   -25.       
    C0000025  OBJROW    43.            R0000000  9.          
    C0000025  R0000001   -14.          R0000002   -1.        
    C0000025  R0000004  26.            R0000006  3.          
    C0000025  R0000007  3.             R0000008   -14.       
    C0000025  R0000009  47.            R0000010  39.         
    C0000025  R0000012  19.            R0000014   -14.       
    C0000026  OBJROW     -12.          R0000000  27.         
    C0000026  R0000001   -10.          R0000004  19.         
    C0000026  R0000005  26.            R0000006  24.         
    C0000026  R0000007   -43.          R0000008  47.         
    C0000026  R0000010  18.            R0000013  26.         
    C0000026  R0000014  1.          
    C0000027  OBJROW     -14.          R0000000  47.         
    C0000027  R0000002   -19.          R0000003  22.         
    C0000027  R0000004   -6.           R0000006  20.         
    C0000027  R0000007   -11.          R0000008   -31.       
    C0000027  R0000009  31.            R0000010  8.          
    C0000028  OBJROW    45.            R0000000  4.          
    C0000028  R0000001   -48.          R0000002   -7.        
    C0000028  R0000004   -32.          R0000006  26.         
    C0000028  R0000007   -16.          R0000010   -3.        
    C0000028  R0000011   -40.          R0000012   -11.       
    C0000028  R0000013  31.            R0000014   -41.       
    C0000029  OBJROW     -46.          R0000000   -38.       
    C0000029  R0000002   -20.          R0000003   -40.       
    C0000029  R0000004   -32.          R0000005  26.         
    C0000029  R0000006  10.            R0000007   -15.       
    C0000029  R0000008  31.            R0000009   -11.       
    C0000029  R0000010   -14.          R0000012  13.         
    C0000029  R0000014  47.         
RHS
    RHS       R0000000   -253.         R0000001   -100.      
    RHS       R0000002  137.           R0000003   -131.      
    RHS       R0000004   -261.         R0000005  107.        
    RHS       R0000006  274.           R0000007  12.         
    RHS       R0000008  37.            R0000009  102.        
    RHS       R0000010  308.           R0000011   -85.       
    RHS       R0000012  144.           R0000013  14.         
    RHS       R0000014   -581.      
BOUNDS
 UI BOUND     C0000000  500.        
 UI BOUND     C0000001  500.        
 UI BOUND     C0000002  500.        
 UI BOUND     C0000003  500.        
 UI BOUND     C0000004  500.        
 UI BOUND     C0000005  500.        
 UI BOUND     C0000006  500.        
 UI BOUND     C0000007  500.        
 UI BOUND     C0000008  500.        
 UI BOUND     C0000009  500.        
 UI BOUND     C0000010  500.        
 UI BOUND     C0000011  500.        
 UI BOUND     C0000012  500.        
 UI BOUND     C0000013  500.        
 UI BOUND     C0000014  500.        
 UI BOUND     C0000015  500.        
 UI BOUND     C0000016  500.        
 UI BOUND     C0000017  500.        
 UI BOUND     C0000018  500.        
 UI BOUND     C0000019  500.        
 UI BOUND     C0000020  500.        
 UI BOUND     C0000021  500.        
 UI BOUND     C0000022  500.        
 UI BOUND     C0000023  500.        
 UI BOUND     C0000024  500.        
 UI BOUND     C0000025  500.        
 UI BOUND     C0000026  500.        
 UI BOUND     C0000027  500.        
 UI BOUND     C0000028  500.        
 UI BOUND     C0000029  500.        
ENDATA
