NAME          BLANK   
ROWS
 N  OBJROW
 L  R0000000
 L  R0000001
 L  R0000002
 L  R0000003
 L  R0000004
 L  R0000005
 L  R0000006
 L  R0000007
 L  R0000008
 L  R0000009
 L  R0000010
 L  R0000011
 L  R0000012
 L  R0000013
 L  R0000014
COLUMNS
    C0000000  OBJROW    21.            R0000000  13.         
    C0000000  R0000005  19.            R0000007  48.         
    C0000000  R0000008   -15.          R0000009  2.          
    C0000000  R0000010  4.             R0000011  8.          
    C0000000  R0000013  9.             R0000014  32.         
    C0000001  OBJROW    44.            R0000000   -2.        
    C0000001  R0000001   -3.           R0000003   -48.       
    C0000001  R0000005   -47.          R0000006  24.         
    C0000001  R0000007   -37.          R0000008   -43.       
    C0000001  R0000009   -33.          R0000010   -49.       
    C0000001  R0000011   -29.          R0000012   -18.       
    C0000001  R0000013   -8.           R0000014  1.          
    C0000002  OBJROW    13.            R0000000   -49.       
    C0000002  R0000002  39.            R0000003   -22.       
    C0000002  R0000004  48.            R0000005   -33.       
    C0000002  R0000006   -38.          R0000008   -32.       
    C0000002  R0000009   -38.          R0000010   -20.       
    C0000002  R0000012  38.            R0000013   -30.       
    C0000002  R0000014   -28.       
    C0000003  OBJROW    1.             R0000000  18.         
    C0000003  R0000001  7.             R0000005   -3.        
    C0000003  R0000006   -46.          R0000007   -35.       
    C0000003  R0000008  19.            R0000009  18.         
    C0000003  R0000010  45.            R0000012   -31.       
    C0000003  R0000013  46.         
    C0000004  OBJROW     -44.          R0000000   -24.       
    C0000004  R0000002  5.             R0000003  35.         
    C0000004  R0000004  33.            R0000005  33.         
    C0000004  R0000006   -25.          R0000008   -12.       
    C0000004  R0000009   -4.           R0000010  35.         
    C0000004  R0000012   -45.          R0000013  49.         
    C0000004  R0000014  35.         
    C0000005  OBJROW    18.            R0000000   -1.        
    C0000005  R0000005   -22.          R0000006   -44.       
    C0000005  R0000007   -31.          R0000009   -24.       
    C0000005  R0000010   -7.           R0000011   -35.       
    C0000005  R0000012  43.            R0000013   -10.       
    C0000005  R0000014  20.         
    C0000006  OBJROW    27.            R0000002   -42.       
    C0000006  R0000004  44.            R0000005  12.         
    C0000006  R0000006   -16.          R0000007  37.         
    C0000006  R0000008  31.            R0000009  48.         
    C0000006  R0000010  21.            R0000011  18.         
    C0000006  R0000012  41.            R0000013  45.         
    C0000006  R0000014  43.         
    C0000007  OBJROW     -26.          R0000002  43.         
    C0000007  R0000003   -30.          R0000004   -25.       
    C0000007  R0000005   -10.          R0000006   -30.       
    C0000007  R0000007   -23.          R0000008  38.         
    C0000007  R0000009  26.            R0000010  34.         
    C0000007  R0000013  40.            R0000014  31.         
    C0000008  OBJROW    26.            R0000003   -17.       
    C0000008  R0000005   -16.          R0000006  31.         
    C0000008  R0000007   -22.          R0000008   -44.       
    C0000008  R0000009   -44.          R0000010   -37.       
    C0000008  R0000012  18.            R0000014  7.          
    C0000009  OBJROW    22.            R0000000  6.          
    C0000009  R0000001   -30.          R0000003   -34.       
    C0000009  R0000005  11.            R0000006  19.         
    C0000009  R0000008   -12.          R0000009  10.         
    C0000009  R0000010   -33.          R0000011   -40.       
    C0000009  R0000012   -26.          R0000013   -33.       
    C0000009  R0000014   -3.        
    C0000010  OBJROW    32.            R0000000  19.         
    C0000010  R0000001  7.             R0000003  42.         
    C0000010  R0000005  18.            R0000008  4.          
    C0000010  R0000009  17.            R0000013   -48.       
    C0000010  R0000014  47.         
    C0000011  OBJROW    30.            R0000000   -26.       
    C0000011  R0000002   -30.          R0000003   -48.       
    C0000011  R0000004  42.            R0000006  26.         
    C0000011  R0000007  24.            R0000008   -42.       
    C0000011  R0000009  42.            R0000010  18.         
    C0000011  R0000011   -2.           R0000012  45.         
    C0000011  R0000013   -37.       
    C0000012  OBJROW     -11.          R0000000  43.         
    C0000012  R0000001   -15.          R0000002   -38.       
    C0000012  R0000003   -32.          R0000005  14.         
    C0000012  R0000006   -39.          R0000007   -41.       
    C0000012  R0000008  46.            R0000009   -47.       
    C0000012  R0000012  8.             R0000013  9.          
    C0000012  R0000014   -38.       
    C0000013  OBJROW     -16.          R0000000  10.         
    C0000013  R0000001   -37.          R0000002   -20.       
    C0000013  R0000005   -50.          R0000007  20.         
    C0000013  R0000009   -36.          R0000010  11.         
    C0000013  R0000011   -36.          R0000012  15.         
    C0000013  R0000014  21.         
    C0000014  OBJROW    23.            R0000000   -50.       
    C0000014  R0000003  43.            R0000005  2.          
    C0000014  R0000006   -28.          R0000007  39.         
    C0000014  R0000009   -2.           R0000010   -47.       
    C0000014  R0000011   -28.          R0000012   -43.       
    C0000014  R0000013  40.            R0000014  2.          
    C0000015  OBJROW    47.            R0000000  31.         
    C0000015  R0000003   -26.          R0000004  20.         
    C0000015  R0000005   -33.          R0000006  14.         
    C0000015  R0000007  46.            R0000008   -30.       
    C0000015  R0000009   -5.           R0000010  14.         
    C0000015  R0000012   -6.           R0000013   -33.       
    C0000015  R0000014   -29.       
    C0000016  OBJROW    42.            R0000000   -37.       
    C0000016  R0000001  28.            R0000003   -37.       
    C0000016  R0000004   -5.           R0000005   -5.        
    C0000016  R0000006   -10.          R0000007  8.          
    C0000016  R0000009   -12.          R0000010   -23.       
    C0000016  R0000011   -11.          R0000012   -48.       
    C0000016  R0000013  37.            R0000014  14.         
    C0000017  OBJROW    13.            R0000000   -47.       
    C0000017  R0000002   -38.          R0000003   -19.       
    C0000017  R0000004  31.            R0000005  38.         
    C0000017  R0000006  19.            R0000007   -9.        
    C0000017  R0000008   -24.          R0000009  19.         
    C0000017  R0000010   -40.          R0000013   -14.       
    C0000017  R0000014  11.         
    C0000018  OBJROW     -14.          R0000000   -17.       
    C0000018  R0000001  5.             R0000003  50.         
    C0000018  R0000005  18.            R0000007  40.         
    C0000018  R0000008   -48.          R0000009   -35.       
    C0000018  R0000010   -14.          R0000011   -33.       
    C0000018  R0000012  24.            R0000013  5.          
    C0000019  OBJROW     -2.           R0000000  14.         
    C0000019  R0000002   -3.           R0000003   -15.       
    C0000019  R0000004   -23.          R0000005  46.         
    C0000019  R0000006  50.            R0000007   -31.       
    C0000019  R0000008   -8.           R0000009   -26.       
    C0000019  R0000010  22.            R0000012   -9.        
    C0000019  R0000014   -6.        
    C0000020  OBJROW     -2.           R0000000   -34.       
    C0000020  R0000001   -4.           R0000002   -38.       
    C0000020  R0000003   -46.          R0000005   -11.       
    C0000020  R0000006  3.             R0000008  49.         
    C0000020  R0000009   -48.          R0000010  50.         
    C0000020  R0000012   -44.          R0000013  9.          
    C0000020  R0000014  33.         
    C0000021  OBJROW    37.            R0000003  17.         
    C0000021  R0000005   -1.           R0000006   -32.       
    C0000021  R0000008  4.             R0000010  34.         
    C0000021  R0000012   -38.          R0000013  4.          
    C0000021  R0000014  30.         
    C0000022  OBJROW    19.            R0000000  6.          
    C0000022  R0000002   -34.          R0000005   -38.       
    C0000022  R0000006   -25.          R0000007   -4.        
    C0000022  R0000008   -37.          R0000009   -20.       
    C0000022  R0000010  30.            R0000011   -36.       
    C0000022  R0000012   -30.          R0000013   -48.       
    C0000022  R0000014  14.         
    C0000023  OBJROW    36.            R0000001  16.         
    C0000023  R0000003  19.            R0000004   -34.       
    C0000023  R0000005   -1.           R0000006   -40.       
    C0000023  R0000007   -26.          R0000008   -27.       
    C0000023  R0000009   -26.          R0000010   -28.       
    C0000023  R0000011   -24.          R0000012  38.         
    C0000023  R0000013   -33.          R0000014  9.          
    C0000024  OBJROW     -24.          R0000000   -11.       
    C0000024  R0000002   -42.          R0000003  44.         
    C0000024  R0000005  4.             R0000006  40.         
    C0000024  R0000007  25.            R0000008   -23.       
    C0000024  R0000009   -2.           R0000010   -37.       
    C0000024  R0000011  16.            R0000012   -49.       
    C0000024  R0000013   -42.          R0000014   -13.       
    C0000025  OBJROW     -18.          R0000000  24.         
    C0000025  R0000002   -28.          R0000003  48.         
    C0000025  R0000005   -1.           R0000006   -35.       
    C0000025  R0000007   -33.          R0000009   -16.       
    C0000025  R0000010  44.            R0000011  32.         
    C0000025  R0000012  12.            R0000013  11.         
    C0000025  R0000014   -12.       
    C0000026  OBJROW     -13.          R0000000  49.         
    C0000026  R0000002  27.            R0000005  11.         
    C0000026  R0000006   -6.           R0000008   -26.       
    C0000026  R0000009  7.             R0000011   -17.       
    C0000026  R0000012  12.            R0000013  9.          
    C0000026  R0000014   -5.        
    C0000027  OBJROW    16.            R0000000  28.         
    C0000027  R0000001  46.            R0000002  33.         
    C0000027  R0000003   -42.          R0000005  33.         
    C0000027  R0000006   -26.          R0000008   -15.       
    C0000027  R0000009  14.            R0000010   -12.       
    C0000027  R0000011   -46.          R0000012  50.         
    C0000027  R0000013  9.             R0000014   -42.       
    C0000028  OBJROW     -34.          R0000000   -2.        
    C0000028  R0000001   -19.          R0000002   -35.       
    C0000028  R0000003   -46.          R0000004   -22.       
    C0000028  R0000005   -3.           R0000006   -45.       
    C0000028  R0000008   -8.           R0000010   -32.       
    C0000028  R0000013   -23.          R0000014  20.         
    C0000029  OBJROW    21.            R0000000   -47.       
    C0000029  R0000003  43.            R0000005   -25.       
    C0000029  R0000006   -8.           R0000008  35.         
    C0000029  R0000009   -39.          R0000011   -32.       
    C0000029  R0000012  14.            R0000013  25.         
    C0000029  R0000014   -7.        
RHS
    RHS       R0000000   -629.         R0000001   -34.       
    RHS       R0000002   -95.          R0000003   -331.      
    RHS       R0000004  68.            R0000005   -445.      
    RHS       R0000006   -296.         R0000007  72.         
    RHS       R0000008   -498.         R0000009   -720.      
    RHS       R0000010   -582.         R0000011   -706.      
    RHS       R0000012   -71.          R0000013   -76.       
    RHS       R0000014  104.        
BOUNDS
 UI BOUND     C0000000  500.        
 UI BOUND     C0000001  500.        
 UI BOUND     C0000002  500.        
 UI BOUND     C0000003  500.        
 UI BOUND     C0000004  500.        
 UI BOUND     C0000005  500.        
 UI BOUND     C0000006  500.        
 UI BOUND     C0000007  500.        
 UI BOUND     C0000008  500.        
 UI BOUND     C0000009  500.        
 UI BOUND     C0000010  500.        
 UI BOUND     C0000011  500.        
 UI BOUND     C0000012  500.        
 UI BOUND     C0000013  500.        
 UI BOUND     C0000014  500.        
 UI BOUND     C0000015  500.        
 UI BOUND     C0000016  500.        
 UI BOUND     C0000017  500.        
 UI BOUND     C0000018  500.        
 UI BOUND     C0000019  500.        
 UI BOUND     C0000020  500.        
 UI BOUND     C0000021  500.        
 UI BOUND     C0000022  500.        
 UI BOUND     C0000023  500.        
 UI BOUND     C0000024  500.        
 UI BOUND     C0000025  500.        
 UI BOUND     C0000026  500.        
 UI BOUND     C0000027  500.        
 UI BOUND     C0000028  500.        
 UI BOUND     C0000029  500.        
ENDATA
