NAME          BLANK   
ROWS
 N  OBJROW
 L  R0000000
 L  R0000001
 L  R0000002
 L  R0000003
 L  R0000004
 L  R0000005
 L  R0000006
 L  R0000007
 L  R0000008
 L  R0000009
 L  R0000010
 L  R0000011
 L  R0000012
 L  R0000013
 L  R0000014
COLUMNS
    C0000000  OBJROW     -45.          R0000000   -24.       
    C0000000  R0000002   -11.          R0000003  6.          
    C0000000  R0000004  7.             R0000005   -24.       
    C0000000  R0000007   -46.          R0000008  38.         
    C0000000  R0000009  40.            R0000010  10.         
    C0000000  R0000011   -7.           R0000012   -30.       
    C0000000  R0000014   -42.       
    C0000001  OBJROW    3.             R0000000   -48.       
    C0000001  R0000001  25.            R0000002   -2.        
    C0000001  R0000003   -45.          R0000004   -43.       
    C0000001  R0000005  29.            R0000008   -33.       
    C0000001  R0000009  29.            R0000011   -50.       
    C0000001  R0000012  39.            R0000013   -4.        
    C0000001  R0000014  28.         
    C0000002  OBJROW     -4.           R0000000   -24.       
    C0000002  R0000002  44.            R0000003  33.         
    C0000002  R0000004   -8.           R0000008  46.         
    C0000002  R0000009   -36.          R0000010  24.         
    C0000002  R0000012   -19.       
    C0000003  OBJROW    17.            R0000000   -36.       
    C0000003  R0000001  16.            R0000002  11.         
    C0000003  R0000003   -39.          R0000004  15.         
    C0000003  R0000006  20.            R0000007  29.         
    C0000003  R0000009  5.             R0000010   -22.       
    C0000003  R0000011   -19.          R0000012   -29.       
    C0000003  R0000013  14.            R0000014   -50.       
    C0000004  OBJROW     -13.          R0000000  46.         
    C0000004  R0000002   -5.           R0000003  39.         
    C0000004  R0000005  43.            R0000006   -22.       
    C0000004  R0000007  27.            R0000009   -44.       
    C0000004  R0000010  46.            R0000012  3.          
    C0000004  R0000013   -12.          R0000014  23.         
    C0000005  OBJROW    10.            R0000002  7.          
    C0000005  R0000003   -50.          R0000004   -37.       
    C0000005  R0000005  19.            R0000006  45.         
    C0000005  R0000008  9.             R0000010  36.         
    C0000005  R0000011  41.            R0000012   -30.       
    C0000005  R0000014  49.         
    C0000006  OBJROW    13.            R0000000  27.         
    C0000006  R0000001  7.             R0000002   -26.       
    C0000006  R0000004  7.             R0000005   -24.       
    C0000006  R0000006   -39.          R0000007  46.         
    C0000006  R0000009  9.             R0000010   -11.       
    C0000006  R0000011  11.            R0000012   -19.       
    C0000006  R0000013  31.            R0000014  4.          
    C0000007  OBJROW     -5.           R0000002  29.         
    C0000007  R0000003   -48.          R0000004  20.         
    C0000007  R0000005   -35.          R0000006  47.         
    C0000007  R0000007  30.            R0000008  32.         
    C0000007  R0000009   -49.          R0000010  49.         
    C0000007  R0000011   -48.          R0000012  11.         
    C0000007  R0000013   -46.       
    C0000008  OBJROW    17.            R0000000   -32.       
    C0000008  R0000001  28.            R0000002   -46.       
    C0000008  R0000003  29.            R0000004   -38.       
    C0000008  R0000005   -5.           R0000006   -48.       
    C0000008  R0000008   -45.          R0000009  23.         
    C0000008  R0000010  44.            R0000011   -46.       
    C0000008  R0000012  31.            R0000013   -11.       
    C0000008  R0000014   -37.       
    C0000009  OBJROW     -41.          R0000000  21.         
    C0000009  R0000001  47.            R0000002  2.          
    C0000009  R0000003   -49.          R0000004  36.         
    C0000009  R0000006   -11.          R0000007  21.         
    C0000009  R0000008  10.            R0000009  5.          
    C0000009  R0000010   -14.          R0000011   -1.        
    C0000009  R0000012  12.            R0000013  16.         
    C0000009  R0000014   -26.       
    C0000010  OBJROW    30.            R0000000  47.         
    C0000010  R0000002  33.            R0000003   -4.        
    C0000010  R0000004  24.            R0000005  26.         
    C0000010  R0000007  40.            R0000009  50.         
    C0000010  R0000010  30.            R0000011  40.         
    C0000010  R0000012   -18.          R0000013  22.         
    C0000010  R0000014  50.         
    C0000011  OBJROW     -31.          R0000000   -36.       
    C0000011  R0000001  40.            R0000002  42.         
    C0000011  R0000005  26.            R0000007  16.         
    C0000011  R0000008   -1.           R0000009   -13.       
    C0000011  R0000010  36.            R0000011  46.         
    C0000011  R0000012   -34.          R0000013  18.         
    C0000012  OBJROW    9.             R0000001   -27.       
    C0000012  R0000002  45.            R0000003   -47.       
    C0000012  R0000004   -1.           R0000005  20.         
    C0000012  R0000006   -7.           R0000007  30.         
    C0000012  R0000009   -18.          R0000010  28.         
    C0000012  R0000011   -27.          R0000012   -19.       
    C0000012  R0000013   -23.          R0000014  4.          
    C0000013  OBJROW    29.            R0000000  9.          
    C0000013  R0000001  23.            R0000002  41.         
    C0000013  R0000003  43.            R0000004  3.          
    C0000013  R0000005  21.            R0000006  5.          
    C0000013  R0000007  21.            R0000008   -8.        
    C0000013  R0000010  13.            R0000011  36.         
    C0000013  R0000012  26.            R0000013   -3.        
    C0000013  R0000014  47.         
    C0000014  OBJROW     -34.          R0000002   -21.       
    C0000014  R0000003  5.             R0000004  23.         
    C0000014  R0000007   -5.           R0000008   -49.       
    C0000014  R0000011  46.            R0000012   -22.       
    C0000014  R0000013   -38.       
    C0000015  OBJROW     -29.          R0000000   -50.       
    C0000015  R0000001   -34.          R0000002   -27.       
    C0000015  R0000003  1.             R0000004   -38.       
    C0000015  R0000005  30.            R0000006   -46.       
    C0000015  R0000008   -13.          R0000009   -30.       
    C0000015  R0000010   -21.          R0000011  28.         
    C0000015  R0000012  24.            R0000013  26.         
    C0000015  R0000014   -50.       
    C0000016  OBJROW     -12.          R0000000  22.         
    C0000016  R0000002   -16.          R0000004  37.         
    C0000016  R0000005  16.            R0000006  2.          
    C0000016  R0000009   -14.          R0000011  48.         
    C0000016  R0000012  4.             R0000013  40.         
    C0000016  R0000014   -15.       
    C0000017  OBJROW    18.            R0000000  36.         
    C0000017  R0000001  3.             R0000002   -36.       
    C0000017  R0000003  12.            R0000004   -6.        
    C0000017  R0000005  29.            R0000006   -45.       
    C0000017  R0000007  6.             R0000008  48.         
    C0000017  R0000009   -19.          R0000010  27.         
    C0000017  R0000011  49.            R0000013   -31.       
    C0000017  R0000014  31.         
    C0000018  OBJROW     -28.          R0000002  28.         
    C0000018  R0000003  7.             R0000004  6.          
    C0000018  R0000007   -38.          R0000008   -46.       
    C0000018  R0000010  16.            R0000011   -31.       
    C0000018  R0000012  38.            R0000013   -39.       
    C0000018  R0000014  29.         
    C0000019  OBJROW    8.             R0000000   -43.       
    C0000019  R0000002  36.            R0000003   -45.       
    C0000019  R0000004   -25.          R0000005   -2.        
    C0000019  R0000006  33.            R0000007   -16.       
    C0000019  R0000008  20.            R0000009  49.         
    C0000019  R0000010   -39.          R0000011   -29.       
    C0000019  R0000012  2.             R0000013  16.         
    C0000020  OBJROW    22.            R0000002   -45.       
    C0000020  R0000003  45.            R0000004   -7.        
    C0000020  R0000005  44.            R0000006   -49.       
    C0000020  R0000007  38.            R0000008   -22.       
    C0000020  R0000009   -38.          R0000010  20.         
    C0000020  R0000011  30.            R0000012   -42.       
    C0000020  R0000013   -49.       
    C0000021  OBJROW    13.            R0000002  46.         
    C0000021  R0000003   -34.          R0000005   -32.       
    C0000021  R0000007  17.            R0000010  1.          
    C0000021  R0000011  1.             R0000013   -30.       
    C0000022  OBJROW     -5.           R0000001   -1.        
    C0000022  R0000002  1.             R0000003   -19.       
    C0000022  R0000007   -47.          R0000008  26.         
    C0000022  R0000009  3.             R0000011   -39.       
    C0000022  R0000012  29.            R0000014   -30.       
    C0000023  OBJROW    32.            R0000000  25.         
    C0000023  R0000001  8.             R0000002  44.         
    C0000023  R0000003  18.            R0000004   -13.       
    C0000023  R0000005  32.            R0000007  32.         
    C0000023  R0000009   -31.          R0000010  44.         
    C0000023  R0000011  12.            R0000012   -50.       
    C0000023  R0000013   -30.          R0000014   -15.       
    C0000024  OBJROW     -47.          R0000002  26.         
    C0000024  R0000003   -17.          R0000004  41.         
    C0000024  R0000005   -6.           R0000007   -6.        
    C0000024  R0000008   -9.           R0000009   -22.       
    C0000024  R0000012  3.          
RHS
    RHS       R0000000   -145.         R0000001  33.         
    RHS       R0000002  206.           R0000003   -855.      
    RHS       R0000004   -474.         R0000005  217.        
    RHS       R0000006   -90.          R0000007  155.        
    RHS       R0000008  397.           R0000009  274.        
    RHS       R0000010  288.           R0000011   -24.       
    RHS       R0000012   -207.         R0000013   -240.      
    RHS       R0000014  381.        
BOUNDS
 UI BOUND     C0000000  500.        
 UI BOUND     C0000001  500.        
 UI BOUND     C0000002  500.        
 UI BOUND     C0000003  500.        
 UI BOUND     C0000004  500.        
 UI BOUND     C0000005  500.        
 UI BOUND     C0000006  500.        
 UI BOUND     C0000007  500.        
 UI BOUND     C0000008  500.        
 UI BOUND     C0000009  500.        
 UI BOUND     C0000010  500.        
 UI BOUND     C0000011  500.        
 UI BOUND     C0000012  500.        
 UI BOUND     C0000013  500.        
 UI BOUND     C0000014  500.        
 UI BOUND     C0000015  500.        
 UI BOUND     C0000016  500.        
 UI BOUND     C0000017  500.        
 UI BOUND     C0000018  500.        
 UI BOUND     C0000019  500.        
 UI BOUND     C0000020  500.        
 UI BOUND     C0000021  500.        
 UI BOUND     C0000022  500.        
 UI BOUND     C0000023  500.        
 UI BOUND     C0000024  500.        
ENDATA
