NAME          BLANK   
ROWS
 N  OBJROW
 L  R0000000
 L  R0000001
 L  R0000002
 L  R0000003
 L  R0000004
 L  R0000005
 L  R0000006
 L  R0000007
 L  R0000008
 L  R0000009
COLUMNS
    C0000000  OBJROW    15.            R0000001   -10.       
    C0000000  R0000002   -19.          R0000004   -46.       
    C0000000  R0000006   -43.          R0000007  34.         
    C0000000  R0000008   -14.       
    C0000001  OBJROW     -5.           R0000000  30.         
    C0000001  R0000002   -20.          R0000006  11.         
    C0000001  R0000007  44.            R0000008   -40.       
    C0000001  R0000009   -33.       
    C0000002  OBJROW     -33.          R0000002   -25.       
    C0000002  R0000004  32.            R0000005  31.         
    C0000002  R0000006   -8.           R0000007  13.         
    C0000002  R0000008   -46.          R0000009  41.         
    C0000003  OBJROW    22.            R0000002  44.         
    C0000003  R0000004  23.            R0000005   -2.        
    C0000003  R0000006   -19.          R0000007   -14.       
    C0000003  R0000008  3.          
    C0000004  OBJROW    6.             R0000003   -42.       
    C0000004  R0000004   -28.          R0000006  23.         
    C0000004  R0000007  5.             R0000008  33.         
    C0000004  R0000009   -29.       
    C0000005  OBJROW     -43.          R0000001  35.         
    C0000005  R0000002   -29.          R0000003  20.         
    C0000005  R0000004  21.            R0000005   -4.        
    C0000005  R0000006   -43.          R0000007  1.          
    C0000005  R0000008  41.            R0000009  32.         
    C0000006  OBJROW     -13.          R0000001  48.         
    C0000006  R0000002   -15.          R0000003   -44.       
    C0000006  R0000004  7.             R0000005   -40.       
    C0000006  R0000006  1.             R0000007  37.         
    C0000006  R0000009  24.         
    C0000007  OBJROW     -41.          R0000000   -26.       
    C0000007  R0000002  31.            R0000004   -20.       
    C0000007  R0000007   -4.           R0000008   -17.       
    C0000007  R0000009  37.         
    C0000008  OBJROW    18.            R0000001  19.         
    C0000008  R0000002  34.            R0000003  39.         
    C0000008  R0000004   -8.           R0000005   -28.       
    C0000008  R0000006  24.            R0000007  41.         
    C0000008  R0000008   -10.          R0000009   -47.       
    C0000009  OBJROW     -25.          R0000003  22.         
    C0000009  R0000004  36.            R0000006  24.         
    C0000009  R0000007  24.            R0000008  41.         
    C0000009  R0000009  15.         
    C0000010  OBJROW     -31.          R0000001  21.         
    C0000010  R0000004   -7.           R0000006   -38.       
    C0000010  R0000007   -41.          R0000008   -4.        
    C0000010  R0000009  9.          
    C0000011  OBJROW    29.            R0000000   -3.        
    C0000011  R0000002   -47.          R0000003   -36.       
    C0000011  R0000004   -23.          R0000005  49.         
    C0000011  R0000006  33.            R0000008   -39.       
    C0000012  OBJROW    16.            R0000001  5.          
    C0000012  R0000003  6.             R0000004   -6.        
    C0000012  R0000005   -10.          R0000006   -29.       
    C0000013  OBJROW    49.            R0000001   -11.       
    C0000013  R0000003  18.            R0000006  41.         
    C0000013  R0000008   -41.          R0000009  12.         
    C0000014  OBJROW     -44.          R0000000   -3.        
    C0000014  R0000001  49.            R0000003  37.         
    C0000014  R0000004   -8.           R0000008  19.         
    C0000014  R0000009   -17.       
    C0000015  OBJROW    27.            R0000000   -7.        
    C0000015  R0000003   -20.          R0000004  33.         
    C0000015  R0000006  8.             R0000007  4.          
    C0000015  R0000008  10.            R0000009   -33.       
    C0000016  OBJROW     -31.          R0000000   -4.        
    C0000016  R0000001  46.            R0000002  17.         
    C0000016  R0000003   -22.          R0000004  27.         
    C0000016  R0000005   -36.          R0000007  41.         
    C0000016  R0000008  16.            R0000009   -31.       
    C0000017  OBJROW    25.            R0000000  46.         
    C0000017  R0000003  17.            R0000004  27.         
    C0000017  R0000005  37.            R0000006  24.         
    C0000017  R0000007   -35.          R0000008  35.         
    C0000018  OBJROW     -27.          R0000001  18.         
    C0000018  R0000002  31.            R0000003  18.         
    C0000018  R0000004   -37.          R0000005   -48.       
    C0000018  R0000006  35.            R0000008   -1.        
    C0000018  R0000009   -43.       
    C0000019  OBJROW     -8.           R0000002   -37.       
    C0000019  R0000003   -40.          R0000004  14.         
    C0000019  R0000006  7.             R0000007  35.         
    C0000019  R0000008   -15.          R0000009  34.         
RHS
    RHS       R0000000   -89.          R0000001  103.        
    RHS       R0000002   -111.         R0000003  135.        
    RHS       R0000004  82.            R0000005   -134.      
    RHS       R0000006  77.            R0000007  610.        
    RHS       R0000008   -74.          R0000009  307.        
BOUNDS
 UI BOUND     C0000000  500.        
 UI BOUND     C0000001  500.        
 UI BOUND     C0000002  500.        
 UI BOUND     C0000003  500.        
 UI BOUND     C0000004  500.        
 UI BOUND     C0000005  500.        
 UI BOUND     C0000006  500.        
 UI BOUND     C0000007  500.        
 UI BOUND     C0000008  500.        
 UI BOUND     C0000009  500.        
 UI BOUND     C0000010  500.        
 UI BOUND     C0000011  500.        
 UI BOUND     C0000012  500.        
 UI BOUND     C0000013  500.        
 UI BOUND     C0000014  500.        
 UI BOUND     C0000015  500.        
 UI BOUND     C0000016  500.        
 UI BOUND     C0000017  500.        
 UI BOUND     C0000018  500.        
 UI BOUND     C0000019  500.        
ENDATA
