NAME          BLANK   
ROWS
 N  OBJROW
 L  R0000000
 L  R0000001
 L  R0000002
 L  R0000003
 L  R0000004
 L  R0000005
 L  R0000006
 L  R0000007
 L  R0000008
 L  R0000009
COLUMNS
    C0000000  OBJROW    4.             R0000000   -18.       
    C0000000  R0000002  12.            R0000003   -38.       
    C0000000  R0000004   -32.          R0000006  37.         
    C0000000  R0000007   -2.           R0000008  9.          
    C0000000  R0000009  12.         
    C0000001  OBJROW    33.            R0000000   -13.       
    C0000001  R0000001  44.            R0000002  37.         
    C0000001  R0000003  42.            R0000004   -27.       
    C0000001  R0000005  20.            R0000007  35.         
    C0000001  R0000008   -33.          R0000009   -48.       
    C0000002  OBJROW    23.            R0000002   -46.       
    C0000002  R0000003  1.             R0000004  7.          
    C0000002  R0000005  29.            R0000006   -49.       
    C0000002  R0000008  9.             R0000009  1.          
    C0000003  OBJROW     -22.          R0000000   -35.       
    C0000003  R0000001   -21.          R0000002  24.         
    C0000003  R0000003  46.            R0000004  30.         
    C0000003  R0000005   -50.          R0000006  34.         
    C0000003  R0000007   -47.          R0000009  4.          
    C0000004  OBJROW     -18.          R0000000  17.         
    C0000004  R0000002  2.             R0000003   -37.       
    C0000004  R0000004   -1.           R0000005  15.         
    C0000004  R0000006   -12.          R0000007   -35.       
    C0000004  R0000008  47.            R0000009  45.         
    C0000005  OBJROW    28.            R0000000  38.         
    C0000005  R0000001   -33.          R0000002   -21.       
    C0000005  R0000003   -30.          R0000004   -8.        
    C0000005  R0000005   -13.          R0000006   -16.       
    C0000005  R0000008  22.            R0000009  17.         
    C0000006  OBJROW     -45.          R0000000   -30.       
    C0000006  R0000002  31.            R0000004  17.         
    C0000006  R0000005   -14.          R0000006   -40.       
    C0000006  R0000008   -26.          R0000009  1.          
    C0000007  OBJROW     -8.           R0000000  12.         
    C0000007  R0000001   -20.          R0000002  17.         
    C0000007  R0000004  25.            R0000005  40.         
    C0000007  R0000006  15.            R0000008   -45.       
    C0000007  R0000009   -3.        
    C0000008  OBJROW     -28.          R0000000   -13.       
    C0000008  R0000001   -13.          R0000002   -50.       
    C0000008  R0000004   -19.          R0000005   -34.       
    C0000008  R0000009  25.         
    C0000009  OBJROW     -26.          R0000002   -38.       
    C0000009  R0000004  14.            R0000005  3.          
    C0000009  R0000007  8.             R0000008  14.         
    C0000009  R0000009  26.         
    C0000010  OBJROW    37.            R0000000   -1.        
    C0000010  R0000001   -37.          R0000002   -18.       
    C0000010  R0000003  37.            R0000004  2.          
    C0000010  R0000005  11.            R0000007   -24.       
    C0000010  R0000008  9.             R0000009   -18.       
    C0000011  OBJROW     -11.          R0000000   -5.        
    C0000011  R0000001  37.            R0000002  48.         
    C0000011  R0000003   -17.          R0000004   -11.       
    C0000011  R0000005  31.            R0000006  20.         
    C0000011  R0000007  1.             R0000008  14.         
    C0000011  R0000009  29.         
    C0000012  OBJROW     -3.           R0000000  38.         
    C0000012  R0000001  21.            R0000002   -40.       
    C0000012  R0000003  31.            R0000004   -3.        
    C0000012  R0000005   -9.           R0000006  3.          
    C0000012  R0000007   -49.          R0000009   -17.       
    C0000013  OBJROW    32.            R0000001   -42.       
    C0000013  R0000002  25.            R0000004  47.         
    C0000013  R0000005   -32.          R0000008  3.          
    C0000013  R0000009   -33.       
    C0000014  OBJROW    11.            R0000002  29.         
    C0000014  R0000003  23.            R0000004  26.         
    C0000014  R0000005  40.            R0000008  46.         
    C0000014  R0000009   -32.       
    C0000015  OBJROW     -10.          R0000000   -7.        
    C0000015  R0000001  8.             R0000002  49.         
    C0000015  R0000004  16.            R0000005   -20.       
    C0000015  R0000007   -21.          R0000008   -16.       
    C0000015  R0000009  30.         
    C0000016  OBJROW     -34.          R0000000  50.         
    C0000016  R0000002   -31.          R0000003  40.         
    C0000016  R0000005  38.            R0000006   -12.       
    C0000017  OBJROW    38.            R0000000   -48.       
    C0000017  R0000004   -25.          R0000005   -17.       
    C0000017  R0000006  16.            R0000007   -4.        
    C0000017  R0000008  30.            R0000009   -25.       
    C0000018  OBJROW    36.            R0000001   -47.       
    C0000018  R0000002  49.            R0000003   -38.       
    C0000018  R0000004  30.            R0000006  7.          
    C0000018  R0000008  23.            R0000009  42.         
    C0000019  OBJROW    44.            R0000001  45.         
    C0000019  R0000002   -37.          R0000004   -19.       
    C0000019  R0000005   -23.          R0000007   -27.       
    C0000019  R0000009   -15.       
    C0000020  OBJROW    28.            R0000002  25.         
    C0000020  R0000003  4.             R0000004   -16.       
    C0000020  R0000005  24.            R0000006  36.         
    C0000020  R0000007  19.            R0000008   -22.       
    C0000020  R0000009   -42.       
    C0000021  OBJROW    13.            R0000000   -40.       
    C0000021  R0000001  47.            R0000002  29.         
    C0000021  R0000003  4.             R0000004  42.         
    C0000021  R0000005   -26.          R0000006   -19.       
    C0000021  R0000009  13.         
    C0000022  OBJROW    28.            R0000000  50.         
    C0000022  R0000002  17.            R0000003   -12.       
    C0000022  R0000004   -28.          R0000005   -30.       
    C0000022  R0000007   -7.           R0000008  34.         
    C0000022  R0000009  18.         
    C0000023  OBJROW    38.            R0000000  28.         
    C0000023  R0000002   -35.          R0000003  23.         
    C0000023  R0000004   -14.          R0000005   -26.       
    C0000023  R0000007   -4.           R0000009   -46.       
    C0000024  OBJROW    40.            R0000001  49.         
    C0000024  R0000002   -15.          R0000004  15.         
    C0000024  R0000005  3.             R0000007   -8.        
    C0000024  R0000008  39.            R0000009   -41.       
RHS
    RHS       R0000000   -134.         R0000001   -150.      
    RHS       R0000002  425.           R0000004   -173.      
    RHS       R0000005   -289.         R0000006  538.        
    RHS       R0000007   -207.         R0000008  37.         
    RHS       R0000009  25.         
BOUNDS
 UI BOUND     C0000000  500.        
 UI BOUND     C0000001  500.        
 UI BOUND     C0000002  500.        
 UI BOUND     C0000003  500.        
 UI BOUND     C0000004  500.        
 UI BOUND     C0000005  500.        
 UI BOUND     C0000006  500.        
 UI BOUND     C0000007  500.        
 UI BOUND     C0000008  500.        
 UI BOUND     C0000009  500.        
 UI BOUND     C0000010  500.        
 UI BOUND     C0000011  500.        
 UI BOUND     C0000012  500.        
 UI BOUND     C0000013  500.        
 UI BOUND     C0000014  500.        
 UI BOUND     C0000015  500.        
 UI BOUND     C0000016  500.        
 UI BOUND     C0000017  500.        
 UI BOUND     C0000018  500.        
 UI BOUND     C0000019  500.        
 UI BOUND     C0000020  500.        
 UI BOUND     C0000021  500.        
 UI BOUND     C0000022  500.        
 UI BOUND     C0000023  500.        
 UI BOUND     C0000024  500.        
ENDATA
