NAME          BLANK   
ROWS
 N  OBJROW
 L  R0000000
 L  R0000001
 L  R0000002
 L  R0000003
 L  R0000004
 L  R0000005
 L  R0000006
 L  R0000007
 L  R0000008
 L  R0000009
 L  R0000010
 L  R0000011
 L  R0000012
 L  R0000013
 L  R0000014
COLUMNS
    C0000000  OBJROW     -20.          R0000000   -37.       
    C0000000  R0000002  28.            R0000005  21.         
    C0000000  R0000006  46.            R0000007  31.         
    C0000000  R0000008   -28.          R0000009  24.         
    C0000000  R0000011  39.            R0000013   -14.       
    C0000000  R0000014   -21.       
    C0000001  OBJROW    49.            R0000000   -22.       
    C0000001  R0000003  35.            R0000004  40.         
    C0000001  R0000005   -34.          R0000006  34.         
    C0000001  R0000007   -19.          R0000009   -22.       
    C0000001  R0000010   -49.          R0000011  34.         
    C0000001  R0000012   -31.          R0000013  11.         
    C0000002  OBJROW    45.            R0000001   -17.       
    C0000002  R0000003  38.            R0000004   -38.       
    C0000002  R0000005  21.            R0000006   -42.       
    C0000002  R0000007  14.            R0000009  47.         
    C0000002  R0000010   -25.          R0000011  44.         
    C0000002  R0000013   -18.          R0000014  19.         
    C0000003  OBJROW    45.            R0000001   -25.       
    C0000003  R0000002   -17.          R0000003   -34.       
    C0000003  R0000004  25.            R0000005   -11.       
    C0000003  R0000006  25.            R0000007   -31.       
    C0000003  R0000009   -13.          R0000011  11.         
    C0000003  R0000012  7.             R0000013  18.         
    C0000003  R0000014  14.         
    C0000004  OBJROW    1.             R0000000   -16.       
    C0000004  R0000001  5.             R0000002  36.         
    C0000004  R0000003  15.            R0000004  30.         
    C0000004  R0000005  1.             R0000006   -27.       
    C0000004  R0000007   -47.          R0000008   -39.       
    C0000004  R0000009  5.             R0000010  21.         
    C0000004  R0000011  5.             R0000012  47.         
    C0000004  R0000013  6.             R0000014  40.         
    C0000005  OBJROW     -29.          R0000000  38.         
    C0000005  R0000002   -20.          R0000003  46.         
    C0000005  R0000004   -30.          R0000005   -18.       
    C0000005  R0000007   -21.          R0000010  20.         
    C0000005  R0000011   -41.          R0000012  40.         
    C0000005  R0000013  24.            R0000014   -25.       
    C0000006  OBJROW     -6.           R0000001  6.          
    C0000006  R0000003   -41.          R0000004  20.         
    C0000006  R0000006   -49.          R0000007   -22.       
    C0000006  R0000008  9.             R0000009  48.         
    C0000006  R0000011   -42.          R0000012   -15.       
    C0000006  R0000013  16.         
    C0000007  OBJROW    2.             R0000000   -3.        
    C0000007  R0000001  33.            R0000002   -29.       
    C0000007  R0000003   -23.          R0000004  18.         
    C0000007  R0000005   -31.          R0000006   -18.       
    C0000007  R0000007   -25.          R0000008   -14.       
    C0000007  R0000009   -26.          R0000011  17.         
    C0000007  R0000012   -48.          R0000013   -32.       
    C0000008  OBJROW    46.            R0000000  46.         
    C0000008  R0000001   -1.           R0000003   -16.       
    C0000008  R0000004   -8.           R0000006   -48.       
    C0000008  R0000008   -47.          R0000009   -19.       
    C0000008  R0000010  2.             R0000011  19.         
    C0000008  R0000012  15.         
    C0000009  OBJROW     -25.          R0000001  16.         
    C0000009  R0000003   -33.          R0000004   -13.       
    C0000009  R0000006  9.             R0000008  16.         
    C0000009  R0000009   -43.          R0000011   -35.       
    C0000009  R0000012   -37.          R0000013  33.         
    C0000010  OBJROW    11.            R0000001  3.          
    C0000010  R0000003   -9.           R0000004   -3.        
    C0000010  R0000006   -4.           R0000007  43.         
    C0000010  R0000009  35.            R0000011  1.          
    C0000010  R0000014  31.         
    C0000011  OBJROW    49.            R0000002  38.         
    C0000011  R0000003  25.            R0000004  14.         
    C0000011  R0000008  2.             R0000009  42.         
    C0000011  R0000010   -23.          R0000011   -28.       
    C0000011  R0000012  10.            R0000013   -48.       
    C0000011  R0000014  11.         
    C0000012  OBJROW    19.            R0000000  39.         
    C0000012  R0000001  14.            R0000002   -7.        
    C0000012  R0000003  46.            R0000004  10.         
    C0000012  R0000006  41.            R0000007  28.         
    C0000012  R0000009   -30.          R0000012   -15.       
    C0000013  OBJROW    33.            R0000000   -2.        
    C0000013  R0000001   -44.          R0000003   -45.       
    C0000013  R0000004  35.            R0000005   -6.        
    C0000013  R0000006   -43.          R0000007   -30.       
    C0000013  R0000009   -32.          R0000010   -10.       
    C0000013  R0000011   -48.          R0000012   -23.       
    C0000013  R0000013   -2.        
    C0000014  OBJROW     -26.          R0000000  5.          
    C0000014  R0000001   -18.          R0000003  7.          
    C0000014  R0000004   -47.          R0000005   -18.       
    C0000014  R0000006   -49.          R0000007  15.         
    C0000014  R0000011  22.            R0000012   -43.       
    C0000014  R0000013   -46.       
    C0000015  OBJROW    36.            R0000001  43.         
    C0000015  R0000002   -16.          R0000004  15.         
    C0000015  R0000005  31.            R0000006   -49.       
    C0000015  R0000007  23.            R0000008  36.         
    C0000015  R0000009  39.            R0000010  5.          
    C0000015  R0000011   -6.           R0000012   -4.        
    C0000015  R0000013   -37.          R0000014   -32.       
    C0000016  OBJROW    20.            R0000001   -37.       
    C0000016  R0000003   -7.           R0000004   -20.       
    C0000016  R0000006   -10.          R0000008  42.         
    C0000016  R0000009   -49.          R0000011  11.         
    C0000016  R0000013  38.            R0000014   -21.       
    C0000017  OBJROW    48.            R0000003  5.          
    C0000017  R0000004  49.            R0000005   -5.        
    C0000017  R0000006  4.             R0000007   -13.       
    C0000017  R0000009  23.            R0000010   -38.       
    C0000017  R0000011  37.            R0000013   -35.       
    C0000017  R0000014  39.         
    C0000018  OBJROW     -26.          R0000000  50.         
    C0000018  R0000001   -46.          R0000005   -50.       
    C0000018  R0000006   -9.           R0000007  8.          
    C0000018  R0000008   -26.          R0000009  10.         
    C0000018  R0000010   -32.          R0000011  45.         
    C0000018  R0000014   -38.       
    C0000019  OBJROW    1.             R0000000   -37.       
    C0000019  R0000001  3.             R0000003   -25.       
    C0000019  R0000004  23.            R0000005   -29.       
    C0000019  R0000006   -17.          R0000011   -14.       
    C0000019  R0000012   -15.       
    C0000020  OBJROW     -18.          R0000003  8.          
    C0000020  R0000005  50.            R0000006   -43.       
    C0000020  R0000007   -31.          R0000009  36.         
    C0000020  R0000011   -27.          R0000012  4.          
    C0000020  R0000013   -21.       
    C0000021  OBJROW     -42.          R0000001   -46.       
    C0000021  R0000003  17.            R0000004  17.         
    C0000021  R0000006   -47.          R0000007   -49.       
    C0000021  R0000009   -41.          R0000010   -36.       
    C0000021  R0000011   -2.           R0000013  48.         
    C0000022  OBJROW     -22.          R0000001   -21.       
    C0000022  R0000003   -43.          R0000004  48.         
    C0000022  R0000005  40.            R0000006   -35.       
    C0000022  R0000009  9.             R0000010  30.         
    C0000022  R0000011   -31.          R0000013   -50.       
    C0000022  R0000014   -28.       
    C0000023  OBJROW    27.            R0000002  9.          
    C0000023  R0000003   -42.          R0000004  50.         
    C0000023  R0000005   -48.          R0000006  5.          
    C0000023  R0000007   -49.          R0000008   -35.       
    C0000023  R0000009  22.            R0000011   -49.       
    C0000023  R0000013  42.            R0000014  40.         
    C0000024  OBJROW     -28.          R0000000  9.          
    C0000024  R0000001   -18.          R0000003   -28.       
    C0000024  R0000004  30.            R0000007   -8.        
    C0000024  R0000009  48.            R0000011  11.         
    C0000024  R0000012  45.            R0000013   -26.       
    C0000024  R0000014  6.          
    C0000025  OBJROW     -37.          R0000001  44.         
    C0000025  R0000002   -36.          R0000003  11.         
    C0000025  R0000004  7.             R0000005   -8.        
    C0000025  R0000008  20.            R0000009  39.         
    C0000025  R0000010  34.            R0000011  24.         
    C0000025  R0000012  32.            R0000013   -39.       
    C0000025  R0000014   -33.       
    C0000026  OBJROW     -29.          R0000002  39.         
    C0000026  R0000003  18.            R0000004   -2.        
    C0000026  R0000005   -17.          R0000006  7.          
    C0000026  R0000007   -9.           R0000008  38.         
    C0000026  R0000009   -9.           R0000010  42.         
    C0000026  R0000011   -33.          R0000012  24.         
    C0000026  R0000013   -30.       
    C0000027  OBJROW    31.            R0000000  31.         
    C0000027  R0000001  32.            R0000002   -6.        
    C0000027  R0000003  11.            R0000004  46.         
    C0000027  R0000005  14.            R0000006   -32.       
    C0000027  R0000007  11.            R0000008  38.         
    C0000027  R0000009  16.            R0000011   -13.       
    C0000027  R0000013   -41.          R0000014  25.         
    C0000028  OBJROW    13.            R0000001  48.         
    C0000028  R0000002  32.            R0000004  50.         
    C0000028  R0000005   -33.          R0000006  46.         
    C0000028  R0000007  15.            R0000008  50.         
    C0000028  R0000009  23.            R0000010   -46.       
    C0000028  R0000011   -29.          R0000013  17.         
    C0000028  R0000014   -8.        
    C0000029  OBJROW     -12.          R0000002  44.         
    C0000029  R0000003   -34.          R0000004  13.         
    C0000029  R0000005   -20.          R0000006   -41.       
    C0000029  R0000008   -13.          R0000009   -6.        
    C0000029  R0000012   -41.          R0000013  33.         
RHS
    RHS       R0000000  174.           R0000001  128.        
    RHS       R0000002  3.             R0000003   -1.        
    RHS       R0000004  766.           R0000005   -256.      
    RHS       R0000006   -41.          R0000007   -216.      
    RHS       R0000008  518.           R0000009  235.        
    RHS       R0000010   -268.         R0000011   -401.      
    RHS       R0000012   -72.          R0000013   -126.      
    RHS       R0000014   -341.      
BOUNDS
 UI BOUND     C0000000  500.        
 UI BOUND     C0000001  500.        
 UI BOUND     C0000002  500.        
 UI BOUND     C0000003  500.        
 UI BOUND     C0000004  500.        
 UI BOUND     C0000005  500.        
 UI BOUND     C0000006  500.        
 UI BOUND     C0000007  500.        
 UI BOUND     C0000008  500.        
 UI BOUND     C0000009  500.        
 UI BOUND     C0000010  500.        
 UI BOUND     C0000011  500.        
 UI BOUND     C0000012  500.        
 UI BOUND     C0000013  500.        
 UI BOUND     C0000014  500.        
 UI BOUND     C0000015  500.        
 UI BOUND     C0000016  500.        
 UI BOUND     C0000017  500.        
 UI BOUND     C0000018  500.        
 UI BOUND     C0000019  500.        
 UI BOUND     C0000020  500.        
 UI BOUND     C0000021  500.        
 UI BOUND     C0000022  500.        
 UI BOUND     C0000023  500.        
 UI BOUND     C0000024  500.        
 UI BOUND     C0000025  500.        
 UI BOUND     C0000026  500.        
 UI BOUND     C0000027  500.        
 UI BOUND     C0000028  500.        
 UI BOUND     C0000029  500.        
ENDATA
