NAME          BLANK   
ROWS
 N  OBJROW
 L  R0000000
 L  R0000001
 L  R0000002
 L  R0000003
 L  R0000004
COLUMNS
    C0000000  OBJROW    29.            R0000002  46.         
    C0000000  R0000003   -13.       
    C0000001  OBJROW     -49.          R0000003   -34.       
    C0000001  R0000004  27.         
    C0000002  OBJROW     -25.          R0000000  42.         
    C0000002  R0000001  33.            R0000002  15.         
    C0000002  R0000003   -43.       
    C0000003  OBJROW     -46.          R0000000   -46.       
    C0000003  R0000001  6.             R0000002   -39.       
    C0000003  R0000003   -4.           R0000004   -16.       
    C0000004  OBJROW     -12.          R0000000  2.          
    C0000004  R0000001   -41.          R0000002  19.         
    C0000004  R0000003   -18.       
    C0000005  OBJROW     -43.          R0000000   -31.       
    C0000005  R0000002  21.            R0000003   -33.       
    C0000005  R0000004  42.         
    C0000006  OBJROW    33.            R0000000   -11.       
    C0000006  R0000001  41.            R0000003  50.         
    C0000007  OBJROW    12.            R0000000  1.          
    C0000007  R0000002  10.            R0000003   -21.       
    C0000008  OBJROW     -36.          R0000000   -26.       
    C0000008  R0000001   -8.           R0000002   -47.       
    C0000008  R0000003  1.             R0000004   -38.       
    C0000009  OBJROW     -45.          R0000000  1.          
    C0000009  R0000001   -34.          R0000002  1.          
    C0000009  R0000003   -17.       
RHS
    RHS       R0000000   -235.         R0000001   -144.      
    RHS       R0000002   -190.         R0000003   -175.      
    RHS       R0000004   -87.       
BOUNDS
 UI BOUND     C0000000  500.        
 UI BOUND     C0000001  500.        
 UI BOUND     C0000002  500.        
 UI BOUND     C0000003  500.        
 UI BOUND     C0000004  500.        
 UI BOUND     C0000005  500.        
 UI BOUND     C0000006  500.        
 UI BOUND     C0000007  500.        
 UI BOUND     C0000008  500.        
 UI BOUND     C0000009  500.        
ENDATA
