NAME          BLANK   
ROWS
 N  OBJROW
 L  R0000000
 L  R0000001
 L  R0000002
 L  R0000003
 L  R0000004
 L  R0000005
 L  R0000006
 L  R0000007
 L  R0000008
 L  R0000009
 L  R0000010
 L  R0000011
 L  R0000012
 L  R0000013
 L  R0000014
COLUMNS
    C0000000  OBJROW     -9.           R0000000   -20.       
    C0000000  R0000001   -29.          R0000002   -20.       
    C0000000  R0000003  18.            R0000004  31.         
    C0000000  R0000005  9.             R0000006  30.         
    C0000000  R0000008   -49.          R0000009  50.         
    C0000000  R0000010   -45.          R0000011  13.         
    C0000000  R0000012   -8.           R0000013  17.         
    C0000000  R0000014   -10.       
    C0000001  OBJROW     -6.           R0000000  18.         
    C0000001  R0000001   -1.           R0000002   -42.       
    C0000001  R0000003  49.            R0000004   -38.       
    C0000001  R0000006  37.            R0000009   -27.       
    C0000001  R0000010   -24.          R0000011  37.         
    C0000001  R0000012   -37.          R0000013  31.         
    C0000002  OBJROW    4.             R0000000  15.         
    C0000002  R0000001  22.            R0000002  47.         
    C0000002  R0000003   -22.          R0000004  11.         
    C0000002  R0000005   -24.          R0000006   -11.       
    C0000002  R0000008  23.            R0000009  35.         
    C0000002  R0000010  18.            R0000011   -18.       
    C0000002  R0000012  39.            R0000013  21.         
    C0000003  OBJROW     -14.          R0000000  7.          
    C0000003  R0000001   -44.          R0000002   -41.       
    C0000003  R0000003   -50.          R0000004  39.         
    C0000003  R0000006  24.            R0000007  22.         
    C0000003  R0000008   -46.          R0000009   -23.       
    C0000003  R0000010  5.             R0000011   -21.       
    C0000003  R0000012  13.         
    C0000004  OBJROW    33.            R0000000  13.         
    C0000004  R0000001   -3.           R0000004   -27.       
    C0000004  R0000005  48.            R0000008  39.         
    C0000004  R0000010  4.             R0000013   -25.       
    C0000004  R0000014   -42.       
    C0000005  OBJROW    23.            R0000000  40.         
    C0000005  R0000001  45.            R0000002  8.          
    C0000005  R0000003  44.            R0000004   -23.       
    C0000005  R0000005  40.            R0000008   -18.       
    C0000005  R0000012  10.            R0000013   -42.       
    C0000005  R0000014  40.         
    C0000006  OBJROW    40.            R0000000   -5.        
    C0000006  R0000002  29.            R0000003  49.         
    C0000006  R0000004   -16.          R0000005   -22.       
    C0000006  R0000007   -6.           R0000009   -49.       
    C0000006  R0000010  40.            R0000012   -23.       
    C0000007  OBJROW    11.            R0000000  40.         
    C0000007  R0000002  17.            R0000003  34.         
    C0000007  R0000004  16.            R0000005   -19.       
    C0000007  R0000007   -32.          R0000008   -43.       
    C0000007  R0000010   -4.           R0000012   -3.        
    C0000007  R0000013  36.            R0000014  15.         
    C0000008  OBJROW     -33.          R0000000   -22.       
    C0000008  R0000001   -5.           R0000002  17.         
    C0000008  R0000004   -29.          R0000006   -46.       
    C0000008  R0000008   -25.          R0000012  38.         
    C0000008  R0000014  48.         
    C0000009  OBJROW     -46.          R0000000   -29.       
    C0000009  R0000001   -12.          R0000002  13.         
    C0000009  R0000004   -39.          R0000005   -28.       
    C0000009  R0000006  18.            R0000009   -28.       
    C0000009  R0000010   -8.           R0000012  1.          
    C0000009  R0000013  21.            R0000014  42.         
    C0000010  OBJROW    5.             R0000000   -28.       
    C0000010  R0000001   -4.           R0000002  41.         
    C0000010  R0000003   -17.          R0000004  38.         
    C0000010  R0000006   -15.          R0000007  12.         
    C0000010  R0000010   -16.          R0000011   -32.       
    C0000010  R0000012   -33.          R0000014   -23.       
    C0000011  OBJROW     -30.          R0000000  50.         
    C0000011  R0000001   -47.          R0000003   -9.        
    C0000011  R0000004  8.             R0000006  1.          
    C0000011  R0000008   -36.          R0000010   -8.        
    C0000011  R0000012   -27.          R0000014   -26.       
    C0000012  OBJROW    30.            R0000000   -30.       
    C0000012  R0000001   -19.          R0000002  39.         
    C0000012  R0000003   -49.          R0000004  4.          
    C0000012  R0000005   -21.          R0000006   -26.       
    C0000012  R0000007   -3.           R0000009   -22.       
    C0000012  R0000010   -9.           R0000011   -17.       
    C0000012  R0000012   -48.          R0000014  16.         
    C0000013  OBJROW    43.            R0000001  28.         
    C0000013  R0000002  29.            R0000003  38.         
    C0000013  R0000004   -50.          R0000005  28.         
    C0000013  R0000006  35.            R0000008   -38.       
    C0000013  R0000009  37.            R0000010  36.         
    C0000013  R0000012  20.            R0000013   -8.        
    C0000014  OBJROW    23.            R0000000  10.         
    C0000014  R0000001   -49.          R0000004  29.         
    C0000014  R0000005  31.            R0000006  15.         
    C0000014  R0000007  7.             R0000009   -44.       
    C0000014  R0000010  23.            R0000011  4.          
    C0000014  R0000012  1.             R0000013  29.         
    C0000015  OBJROW     -19.          R0000000  20.         
    C0000015  R0000001  45.            R0000002   -39.       
    C0000015  R0000003  45.            R0000005  33.         
    C0000015  R0000007  23.            R0000008  7.          
    C0000015  R0000010   -32.          R0000012   -35.       
    C0000015  R0000013  14.         
    C0000016  OBJROW    13.            R0000000   -23.       
    C0000016  R0000001   -14.          R0000002  13.         
    C0000016  R0000003  12.            R0000004   -26.       
    C0000016  R0000008   -41.          R0000009   -21.       
    C0000016  R0000010  16.            R0000012  11.         
    C0000016  R0000013  1.             R0000014  50.         
    C0000017  OBJROW     -19.          R0000001  28.         
    C0000017  R0000003  29.            R0000004   -32.       
    C0000017  R0000008  27.            R0000009   -5.        
    C0000017  R0000010  42.            R0000011  3.          
    C0000017  R0000013  12.         
    C0000018  OBJROW     -42.          R0000001  4.          
    C0000018  R0000002  33.            R0000003   -11.       
    C0000018  R0000004   -28.          R0000005   -3.        
    C0000018  R0000008  45.            R0000009  36.         
    C0000018  R0000010  42.            R0000012   -36.       
    C0000018  R0000013  23.         
    C0000019  OBJROW     -32.          R0000000  29.         
    C0000019  R0000001   -39.          R0000002   -9.        
    C0000019  R0000003   -18.          R0000004   -23.       
    C0000019  R0000006   -4.           R0000007   -28.       
    C0000019  R0000009  45.            R0000010  26.         
    C0000019  R0000012  36.            R0000013   -4.        
    C0000019  R0000014  49.         
RHS
    RHS       R0000000  56.            R0000001   -16.       
    RHS       R0000002  160.           R0000003  35.         
    RHS       R0000004   -224.         R0000005  17.         
    RHS       R0000006  105.           R0000007   -8.        
    RHS       R0000008  26.            R0000009   -55.       
    RHS       R0000010  130.           R0000011   -71.       
    RHS       R0000012   -97.          R0000013  103.        
    RHS       R0000014  171.        
BOUNDS
 UI BOUND     C0000000  500.        
 UI BOUND     C0000001  500.        
 UI BOUND     C0000002  500.        
 UI BOUND     C0000003  500.        
 UI BOUND     C0000004  500.        
 UI BOUND     C0000005  500.        
 UI BOUND     C0000006  500.        
 UI BOUND     C0000007  500.        
 UI BOUND     C0000008  500.        
 UI BOUND     C0000009  500.        
 UI BOUND     C0000010  500.        
 UI BOUND     C0000011  500.        
 UI BOUND     C0000012  500.        
 UI BOUND     C0000013  500.        
 UI BOUND     C0000014  500.        
 UI BOUND     C0000015  500.        
 UI BOUND     C0000016  500.        
 UI BOUND     C0000017  500.        
 UI BOUND     C0000018  500.        
 UI BOUND     C0000019  500.        
ENDATA
