NAME          BLANK   
ROWS
 N  OBJROW
 L  R0000000
 L  R0000001
 L  R0000002
 L  R0000003
 L  R0000004
 L  R0000005
 L  R0000006
 L  R0000007
 L  R0000008
 L  R0000009
 L  R0000010
 L  R0000011
 L  R0000012
 L  R0000013
 L  R0000014
COLUMNS
    C0000000  OBJROW    21.            R0000000  31.         
    C0000000  R0000002  9.             R0000006   -7.        
    C0000000  R0000007   -48.          R0000008   -12.       
    C0000000  R0000009   -29.          R0000010  15.         
    C0000000  R0000011  4.             R0000013  30.         
    C0000001  OBJROW     -11.          R0000000  24.         
    C0000001  R0000002   -27.          R0000003   -42.       
    C0000001  R0000005   -44.          R0000006   -4.        
    C0000001  R0000007   -14.          R0000008   -37.       
    C0000001  R0000009  13.            R0000010  48.         
    C0000001  R0000011  38.            R0000012   -12.       
    C0000001  R0000013   -43.       
    C0000002  OBJROW    10.            R0000001  1.          
    C0000002  R0000002  48.            R0000003  7.          
    C0000002  R0000005  50.            R0000006   -11.       
    C0000002  R0000009  23.            R0000011  18.         
    C0000002  R0000012   -32.          R0000013  24.         
    C0000003  OBJROW    43.            R0000000  6.          
    C0000003  R0000001  32.            R0000002   -13.       
    C0000003  R0000005   -39.          R0000006  42.         
    C0000003  R0000007  30.            R0000008   -9.        
    C0000003  R0000009   -37.          R0000011   -29.       
    C0000003  R0000012   -37.          R0000013  9.          
    C0000003  R0000014  28.         
    C0000004  OBJROW    16.            R0000001   -9.        
    C0000004  R0000002  45.            R0000005  14.         
    C0000004  R0000006   -36.          R0000008   -16.       
    C0000004  R0000010  33.            R0000011   -33.       
    C0000004  R0000012  38.            R0000013   -18.       
    C0000004  R0000014   -11.       
    C0000005  OBJROW     -3.           R0000000  13.         
    C0000005  R0000002  18.            R0000003  27.         
    C0000005  R0000005   -30.          R0000007   -42.       
    C0000005  R0000008  46.            R0000009   -25.       
    C0000005  R0000010   -31.          R0000011   -5.        
    C0000005  R0000012  27.            R0000013   -14.       
    C0000005  R0000014  33.         
    C0000006  OBJROW    39.            R0000000  13.         
    C0000006  R0000001  18.            R0000002  33.         
    C0000006  R0000003  50.            R0000004   -50.       
    C0000006  R0000005  36.            R0000006  24.         
    C0000006  R0000007  9.             R0000008  18.         
    C0000006  R0000009  40.            R0000010  45.         
    C0000006  R0000011  2.             R0000012  15.         
    C0000006  R0000013   -26.          R0000014   -38.       
    C0000007  OBJROW    44.            R0000000  44.         
    C0000007  R0000002  14.            R0000003  31.         
    C0000007  R0000004  41.            R0000006   -26.       
    C0000007  R0000007   -30.          R0000008  9.          
    C0000007  R0000009  25.            R0000011   -38.       
    C0000007  R0000012  5.          
    C0000008  OBJROW    1.             R0000002   -39.       
    C0000008  R0000003   -16.          R0000005   -29.       
    C0000008  R0000006  15.            R0000008  25.         
    C0000008  R0000009  12.            R0000011  30.         
    C0000008  R0000012   -41.          R0000013  15.         
    C0000008  R0000014   -46.       
    C0000009  OBJROW     -20.          R0000000  29.         
    C0000009  R0000001   -43.          R0000002  24.         
    C0000009  R0000003  45.            R0000006  8.          
    C0000009  R0000007  23.            R0000009  34.         
    C0000009  R0000011  19.            R0000012   -7.        
    C0000009  R0000013   -23.          R0000014  11.         
    C0000010  OBJROW     -12.          R0000000   -40.       
    C0000010  R0000001  35.            R0000002   -2.        
    C0000010  R0000006   -49.          R0000007  3.          
    C0000010  R0000008  11.            R0000009  40.         
    C0000010  R0000010  1.             R0000011   -32.       
    C0000010  R0000012  44.            R0000013  5.          
    C0000011  OBJROW     -31.          R0000000   -17.       
    C0000011  R0000001   -18.          R0000002  27.         
    C0000011  R0000004  25.            R0000006  34.         
    C0000011  R0000008   -43.          R0000009  34.         
    C0000011  R0000011   -15.          R0000012  3.          
    C0000011  R0000013   -35.          R0000014   -27.       
    C0000012  OBJROW    5.             R0000002  14.         
    C0000012  R0000005  14.            R0000006  19.         
    C0000012  R0000007   -44.          R0000009  11.         
    C0000012  R0000010   -1.           R0000011  39.         
    C0000012  R0000012   -30.          R0000013   -28.       
    C0000013  OBJROW    8.             R0000000  34.         
    C0000013  R0000004  18.            R0000006  45.         
    C0000013  R0000007  31.            R0000009  5.          
    C0000013  R0000010   -16.          R0000011  37.         
    C0000013  R0000012   -36.          R0000013  16.         
    C0000013  R0000014   -20.       
    C0000014  OBJROW    18.            R0000001  39.         
    C0000014  R0000003  47.            R0000004  11.         
    C0000014  R0000006   -19.          R0000007  24.         
    C0000014  R0000008  35.            R0000009  50.         
    C0000014  R0000010   -4.           R0000011   -44.       
    C0000014  R0000013   -46.          R0000014  8.          
    C0000015  OBJROW    12.            R0000000  8.          
    C0000015  R0000002  12.            R0000005  6.          
    C0000015  R0000006   -7.           R0000007  43.         
    C0000015  R0000009   -9.           R0000010  40.         
    C0000015  R0000011  8.             R0000013  16.         
    C0000015  R0000014   -50.       
    C0000016  OBJROW    28.            R0000002  2.          
    C0000016  R0000003  22.            R0000004  28.         
    C0000016  R0000005   -48.          R0000007   -49.       
    C0000016  R0000009  1.             R0000010  10.         
    C0000016  R0000011   -38.          R0000012  6.          
    C0000017  OBJROW     -19.          R0000002   -46.       
    C0000017  R0000004  25.            R0000006   -44.       
    C0000017  R0000007  13.            R0000008   -19.       
    C0000017  R0000009   -16.          R0000010  11.         
    C0000017  R0000011  32.            R0000012  37.         
    C0000018  OBJROW    39.            R0000001  28.         
    C0000018  R0000003  7.             R0000005   -8.        
    C0000018  R0000006   -43.          R0000009  16.         
    C0000018  R0000011  50.            R0000012  45.         
    C0000018  R0000014   -37.       
    C0000019  OBJROW    47.            R0000000  14.         
    C0000019  R0000001  37.            R0000003   -17.       
    C0000019  R0000004   -44.          R0000009  38.         
    C0000019  R0000010  32.            R0000012  18.         
    C0000019  R0000014   -48.       
    C0000020  OBJROW     -21.          R0000000  22.         
    C0000020  R0000001  28.            R0000002  42.         
    C0000020  R0000003   -50.          R0000004   -7.        
    C0000020  R0000006  28.            R0000007  48.         
    C0000020  R0000008  22.            R0000009  44.         
    C0000020  R0000010  22.            R0000011   -35.       
    C0000020  R0000012   -46.       
    C0000021  OBJROW     -13.          R0000001  26.         
    C0000021  R0000002  23.            R0000006  27.         
    C0000021  R0000007   -24.          R0000008   -40.       
    C0000021  R0000011  3.             R0000013  14.         
    C0000021  R0000014  19.         
    C0000022  OBJROW    26.            R0000002   -35.       
    C0000022  R0000003  26.            R0000004   -26.       
    C0000022  R0000005  15.            R0000006   -38.       
    C0000022  R0000009   -38.          R0000010   -17.       
    C0000022  R0000011  7.             R0000012  27.         
    C0000022  R0000013  2.          
    C0000023  OBJROW     -11.          R0000000  1.          
    C0000023  R0000001  19.            R0000002   -28.       
    C0000023  R0000004  24.            R0000006  8.          
    C0000023  R0000009  30.            R0000010  23.         
    C0000023  R0000011  28.            R0000012   -36.       
    C0000023  R0000013  10.            R0000014   -35.       
    C0000024  OBJROW     -15.          R0000004  44.         
    C0000024  R0000007  22.            R0000009  39.         
    C0000024  R0000010   -45.          R0000011   -41.       
    C0000024  R0000012  22.            R0000013  33.         
    C0000024  R0000014  1.          
    C0000025  OBJROW     -25.          R0000000  11.         
    C0000025  R0000001  45.            R0000003   -21.       
    C0000025  R0000005  43.            R0000006  41.         
    C0000025  R0000007  30.            R0000008  50.         
    C0000025  R0000009   -41.          R0000010  29.         
    C0000025  R0000011  12.            R0000012  3.          
    C0000025  R0000014   -14.       
    C0000026  OBJROW     -6.           R0000000  29.         
    C0000026  R0000001   -6.           R0000002   -44.       
    C0000026  R0000003  20.            R0000004   -14.       
    C0000026  R0000005  26.            R0000006   -19.       
    C0000026  R0000008   -43.          R0000009   -45.       
    C0000026  R0000010  25.            R0000011   -46.       
    C0000026  R0000012  35.            R0000013   -35.       
    C0000027  OBJROW     -14.          R0000000   -28.       
    C0000027  R0000003   -20.          R0000004  25.         
    C0000027  R0000005  42.            R0000006  18.         
    C0000027  R0000007  22.            R0000008  34.         
    C0000027  R0000009   -35.          R0000010   -31.       
    C0000027  R0000011   -19.          R0000012  44.         
    C0000027  R0000014   -29.       
    C0000028  OBJROW    30.            R0000000  10.         
    C0000028  R0000001   -5.           R0000004   -2.        
    C0000028  R0000005   -27.          R0000008   -46.       
    C0000028  R0000009  27.            R0000010   -49.       
    C0000028  R0000011  28.            R0000012   -25.       
    C0000029  OBJROW    32.            R0000001   -3.        
    C0000029  R0000002  3.             R0000005  10.         
    C0000029  R0000006   -3.           R0000008   -42.       
    C0000029  R0000009   -6.           R0000010  19.         
    C0000029  R0000011   -37.          R0000012  50.         
RHS
    RHS       R0000000  512.           R0000001  220.        
    RHS       R0000002  571.           R0000003  672.        
    RHS       R0000004   -143.         R0000005  377.        
    RHS       R0000006   -109.         R0000007   -213.      
    RHS       R0000008  270.           R0000009  311.        
    RHS       R0000010  209.           R0000011  190.        
    RHS       R0000012  201.           R0000013  34.         
    RHS       R0000014   -385.      
BOUNDS
 UI BOUND     C0000000  500.        
 UI BOUND     C0000001  500.        
 UI BOUND     C0000002  500.        
 UI BOUND     C0000003  500.        
 UI BOUND     C0000004  500.        
 UI BOUND     C0000005  500.        
 UI BOUND     C0000006  500.        
 UI BOUND     C0000007  500.        
 UI BOUND     C0000008  500.        
 UI BOUND     C0000009  500.        
 UI BOUND     C0000010  500.        
 UI BOUND     C0000011  500.        
 UI BOUND     C0000012  500.        
 UI BOUND     C0000013  500.        
 UI BOUND     C0000014  500.        
 UI BOUND     C0000015  500.        
 UI BOUND     C0000016  500.        
 UI BOUND     C0000017  500.        
 UI BOUND     C0000018  500.        
 UI BOUND     C0000019  500.        
 UI BOUND     C0000020  500.        
 UI BOUND     C0000021  500.        
 UI BOUND     C0000022  500.        
 UI BOUND     C0000023  500.        
 UI BOUND     C0000024  500.        
 UI BOUND     C0000025  500.        
 UI BOUND     C0000026  500.        
 UI BOUND     C0000027  500.        
 UI BOUND     C0000028  500.        
 UI BOUND     C0000029  500.        
ENDATA
