NAME          BLANK   
ROWS
 N  OBJROW
 L  R0000000
 L  R0000001
 L  R0000002
 L  R0000003
 L  R0000004
 L  R0000005
 L  R0000006
 L  R0000007
 L  R0000008
 L  R0000009
COLUMNS
    C0000000  OBJROW     -32.          R0000000   -15.       
    C0000000  R0000001  1.             R0000002   -2.        
    C0000000  R0000003  25.            R0000007   -27.       
    C0000001  OBJROW     -28.          R0000000  24.         
    C0000001  R0000001  33.            R0000002  25.         
    C0000001  R0000003   -26.          R0000004  26.         
    C0000001  R0000005   -48.          R0000006   -35.       
    C0000001  R0000007   -43.          R0000008   -3.        
    C0000001  R0000009  30.         
    C0000002  OBJROW     -18.          R0000000   -4.        
    C0000002  R0000002  49.            R0000004   -50.       
    C0000002  R0000005  33.            R0000008   -21.       
    C0000003  OBJROW    11.            R0000000   -4.        
    C0000003  R0000002   -14.          R0000005  17.         
    C0000003  R0000007   -18.          R0000008   -43.       
    C0000004  OBJROW     -44.          R0000000  22.         
    C0000004  R0000003   -21.          R0000005  19.         
    C0000004  R0000007   -17.          R0000008  6.          
    C0000005  OBJROW     -25.          R0000000  14.         
    C0000005  R0000001  16.            R0000005   -49.       
    C0000005  R0000006  7.             R0000007   -17.       
    C0000006  OBJROW     -23.          R0000002   -41.       
    C0000006  R0000003   -13.          R0000004   -11.       
    C0000006  R0000005  3.             R0000007  35.         
    C0000007  OBJROW    23.            R0000001   -37.       
    C0000007  R0000002  23.            R0000005  6.          
    C0000007  R0000007  41.            R0000008  49.         
    C0000008  OBJROW     -41.          R0000000   -2.        
    C0000008  R0000001   -40.          R0000003  35.         
    C0000008  R0000005  38.            R0000006   -17.       
    C0000008  R0000007  3.             R0000008  41.         
    C0000009  OBJROW     -25.          R0000001  16.         
    C0000009  R0000003  27.            R0000005   -14.       
    C0000009  R0000009   -13.       
    C0000010  OBJROW     -27.          R0000000   -8.        
    C0000010  R0000002   -25.          R0000005  1.          
    C0000010  R0000006   -48.          R0000007   -27.       
    C0000010  R0000008   -42.          R0000009  9.          
    C0000011  OBJROW    11.            R0000000   -31.       
    C0000011  R0000001   -27.          R0000002  41.         
    C0000011  R0000003   -32.          R0000005  24.         
    C0000011  R0000007  36.            R0000009  26.         
    C0000012  OBJROW    19.            R0000002   -19.       
    C0000012  R0000005   -25.          R0000007  42.         
    C0000012  R0000008   -43.          R0000009  47.         
    C0000013  OBJROW    12.            R0000000  37.         
    C0000013  R0000005   -12.          R0000007  14.         
    C0000013  R0000008  49.            R0000009  34.         
    C0000014  OBJROW     -35.          R0000001   -30.       
    C0000014  R0000002  20.            R0000004  2.          
    C0000014  R0000005  3.             R0000006  36.         
    C0000014  R0000007   -32.       
    C0000015  OBJROW     -48.          R0000000   -1.        
    C0000015  R0000002   -36.          R0000003   -20.       
    C0000015  R0000004  18.            R0000005  49.         
    C0000015  R0000006  30.            R0000007  33.         
    C0000015  R0000008   -43.          R0000009  17.         
    C0000016  OBJROW    9.             R0000000   -46.       
    C0000016  R0000001   -24.          R0000002   -18.       
    C0000016  R0000003   -35.          R0000004  29.         
    C0000016  R0000005  36.            R0000006  33.         
    C0000016  R0000007   -44.          R0000008   -24.       
    C0000016  R0000009  20.         
    C0000017  OBJROW     -35.          R0000000   -32.       
    C0000017  R0000001  44.            R0000003  38.         
    C0000017  R0000004   -27.          R0000005   -50.       
    C0000017  R0000006  43.            R0000007   -20.       
    C0000017  R0000008   -27.       
    C0000018  OBJROW    11.            R0000000  28.         
    C0000018  R0000003  31.            R0000004   -32.       
    C0000018  R0000005   -8.           R0000006  38.         
    C0000018  R0000007   -8.           R0000008  18.         
    C0000018  R0000009   -45.       
    C0000019  OBJROW    31.            R0000000  26.         
    C0000019  R0000002   -20.          R0000003   -39.       
    C0000019  R0000004  34.            R0000005   -44.       
    C0000019  R0000007  43.            R0000008  8.          
    C0000019  R0000009  31.         
    C0000020  OBJROW     -28.          R0000000  47.         
    C0000020  R0000001   -8.           R0000004  49.         
    C0000020  R0000005  26.            R0000007   -40.       
    C0000020  R0000009  1.          
    C0000021  OBJROW    42.            R0000000   -10.       
    C0000021  R0000002   -6.           R0000004  8.          
    C0000021  R0000005   -30.          R0000006   -5.        
    C0000021  R0000007  28.            R0000009  11.         
    C0000022  OBJROW    27.            R0000000  6.          
    C0000022  R0000001  42.            R0000003   -24.       
    C0000022  R0000004   -14.          R0000005  18.         
    C0000022  R0000006   -7.           R0000007   -34.       
    C0000022  R0000008  9.             R0000009   -45.       
    C0000023  OBJROW     -37.          R0000001   -15.       
    C0000023  R0000002  43.            R0000004   -38.       
    C0000023  R0000005   -25.          R0000006   -31.       
    C0000023  R0000007  34.            R0000008  48.         
    C0000023  R0000009   -47.       
    C0000024  OBJROW     -22.          R0000000  30.         
    C0000024  R0000001  49.            R0000003  16.         
    C0000024  R0000005  49.            R0000007  50.         
    C0000024  R0000008  23.         
    C0000025  OBJROW     -34.          R0000000   -33.       
    C0000025  R0000003  37.            R0000004  36.         
    C0000025  R0000005  24.            R0000006   -13.       
    C0000025  R0000007  11.            R0000008   -31.       
    C0000025  R0000009   -14.       
    C0000026  OBJROW     -47.          R0000000  49.         
    C0000026  R0000002   -7.           R0000003  4.          
    C0000026  R0000004   -23.          R0000005  43.         
    C0000026  R0000007   -39.          R0000009   -9.        
    C0000027  OBJROW    20.            R0000001  39.         
    C0000027  R0000002   -26.          R0000003  7.          
    C0000027  R0000005  9.             R0000007  3.          
    C0000027  R0000008   -11.       
    C0000028  OBJROW     -18.          R0000002  36.         
    C0000028  R0000003   -49.          R0000005  19.         
    C0000028  R0000007   -15.          R0000008  23.         
    C0000029  OBJROW    19.            R0000000   -38.       
    C0000029  R0000001  38.            R0000005  22.         
    C0000029  R0000007   -41.          R0000008   -11.       
RHS
    RHS       R0000000  678.           R0000001  353.        
    RHS       R0000002   -219.         R0000003  58.         
    RHS       R0000004   -160.         R0000005  720.        
    RHS       R0000006  276.           R0000007   -476.      
    RHS       R0000008   -311.         R0000009   -219.      
BOUNDS
 UI BOUND     C0000000  500.        
 UI BOUND     C0000001  500.        
 UI BOUND     C0000002  500.        
 UI BOUND     C0000003  500.        
 UI BOUND     C0000004  500.        
 UI BOUND     C0000005  500.        
 UI BOUND     C0000006  500.        
 UI BOUND     C0000007  500.        
 UI BOUND     C0000008  500.        
 UI BOUND     C0000009  500.        
 UI BOUND     C0000010  500.        
 UI BOUND     C0000011  500.        
 UI BOUND     C0000012  500.        
 UI BOUND     C0000013  500.        
 UI BOUND     C0000014  500.        
 UI BOUND     C0000015  500.        
 UI BOUND     C0000016  500.        
 UI BOUND     C0000017  500.        
 UI BOUND     C0000018  500.        
 UI BOUND     C0000019  500.        
 UI BOUND     C0000020  500.        
 UI BOUND     C0000021  500.        
 UI BOUND     C0000022  500.        
 UI BOUND     C0000023  500.        
 UI BOUND     C0000024  500.        
 UI BOUND     C0000025  500.        
 UI BOUND     C0000026  500.        
 UI BOUND     C0000027  500.        
 UI BOUND     C0000028  500.        
 UI BOUND     C0000029  500.        
ENDATA
