NAME          BLANK   
ROWS
 N  OBJROW
 L  R0000000
 L  R0000001
 L  R0000002
 L  R0000003
 L  R0000004
 L  R0000005
 L  R0000006
 L  R0000007
 L  R0000008
 L  R0000009
 L  R0000010
 L  R0000011
 L  R0000012
 L  R0000013
 L  R0000014
COLUMNS
    C0000000  OBJROW     -29.          R0000002   -46.       
    C0000000  R0000003   -34.          R0000004   -49.       
    C0000000  R0000005   -14.          R0000006  32.         
    C0000000  R0000007   -34.          R0000009   -37.       
    C0000000  R0000010  35.            R0000011  30.         
    C0000000  R0000012  47.         
    C0000001  OBJROW     -33.          R0000000  45.         
    C0000001  R0000002  20.            R0000003  38.         
    C0000001  R0000005  11.            R0000006   -48.       
    C0000001  R0000007  5.             R0000008   -7.        
    C0000001  R0000009  24.            R0000010   -15.       
    C0000001  R0000012  20.            R0000013   -17.       
    C0000001  R0000014   -37.       
    C0000002  OBJROW     -21.          R0000000  38.         
    C0000002  R0000001   -38.          R0000002  31.         
    C0000002  R0000003  12.            R0000005   -40.       
    C0000002  R0000006   -11.          R0000007  26.         
    C0000002  R0000008  26.            R0000009   -4.        
    C0000002  R0000010  30.            R0000011   -5.        
    C0000002  R0000013   -16.          R0000014   -21.       
    C0000003  OBJROW     -34.          R0000000   -8.        
    C0000003  R0000002   -24.          R0000003  18.         
    C0000003  R0000004   -38.          R0000005  49.         
    C0000003  R0000006  35.            R0000007   -6.        
    C0000003  R0000009  37.            R0000010   -48.       
    C0000003  R0000011  13.            R0000012   -40.       
    C0000003  R0000013   -25.          R0000014  28.         
    C0000004  OBJROW    25.            R0000000  16.         
    C0000004  R0000002  36.            R0000003  2.          
    C0000004  R0000004   -11.          R0000005  20.         
    C0000004  R0000006   -17.          R0000007  2.          
    C0000004  R0000009   -43.          R0000012   -34.       
    C0000004  R0000013   -36.          R0000014  17.         
    C0000005  OBJROW    42.            R0000000   -5.        
    C0000005  R0000001  33.            R0000002  13.         
    C0000005  R0000003  45.            R0000004   -7.        
    C0000005  R0000005   -39.          R0000006   -33.       
    C0000005  R0000007   -36.          R0000008  27.         
    C0000005  R0000009   -24.          R0000011   -23.       
    C0000005  R0000012  20.            R0000013  24.         
    C0000005  R0000014  48.         
    C0000006  OBJROW    8.             R0000000   -4.        
    C0000006  R0000002   -20.          R0000003   -8.        
    C0000006  R0000006  28.            R0000007  33.         
    C0000006  R0000008  5.             R0000009  2.          
    C0000006  R0000010  13.            R0000012  50.         
    C0000006  R0000014  17.         
    C0000007  OBJROW    22.            R0000000   -40.       
    C0000007  R0000002   -38.          R0000003  42.         
    C0000007  R0000006  2.             R0000007  47.         
    C0000007  R0000009   -7.           R0000010   -49.       
    C0000007  R0000011  11.            R0000012  18.         
    C0000007  R0000014   -31.       
    C0000008  OBJROW    31.            R0000000  27.         
    C0000008  R0000002  32.            R0000003  13.         
    C0000008  R0000004  32.            R0000005   -12.       
    C0000008  R0000006  29.            R0000007   -31.       
    C0000008  R0000008   -8.           R0000009  29.         
    C0000008  R0000011  37.            R0000012  3.          
    C0000008  R0000013  14.            R0000014  10.         
    C0000009  OBJROW     -41.          R0000003   -24.       
    C0000009  R0000004   -27.          R0000006  49.         
    C0000009  R0000007   -46.          R0000009   -7.        
    C0000009  R0000010  34.            R0000012  25.         
    C0000009  R0000013  8.          
    C0000010  OBJROW    41.            R0000001  10.         
    C0000010  R0000002   -31.          R0000003   -13.       
    C0000010  R0000005  19.            R0000006   -29.       
    C0000010  R0000007  45.            R0000009   -27.       
    C0000010  R0000010   -28.          R0000012   -7.        
    C0000010  R0000014   -40.       
    C0000011  OBJROW    18.            R0000002  20.         
    C0000011  R0000003  44.            R0000004   -42.       
    C0000011  R0000005  11.            R0000006   -49.       
    C0000011  R0000007  43.            R0000008  19.         
    C0000011  R0000009  41.            R0000010   -14.       
    C0000011  R0000012   -39.          R0000013   -4.        
    C0000011  R0000014   -14.       
    C0000012  OBJROW    15.            R0000000  19.         
    C0000012  R0000003   -21.          R0000004  14.         
    C0000012  R0000005  40.            R0000006   -2.        
    C0000012  R0000007  19.            R0000009  45.         
    C0000012  R0000010  30.            R0000011  34.         
    C0000012  R0000013   -45.          R0000014  21.         
    C0000013  OBJROW    38.            R0000002   -34.       
    C0000013  R0000003  18.            R0000004  48.         
    C0000013  R0000005  45.            R0000006   -8.        
    C0000013  R0000007   -40.          R0000008   -28.       
    C0000013  R0000009  10.            R0000010  17.         
    C0000013  R0000012   -2.           R0000013  46.         
    C0000014  OBJROW    44.            R0000000   -25.       
    C0000014  R0000003  4.             R0000004   -42.       
    C0000014  R0000005   -20.          R0000006  17.         
    C0000014  R0000007  5.             R0000012  21.         
    C0000014  R0000014   -23.       
    C0000015  OBJROW     -15.          R0000001  38.         
    C0000015  R0000004  20.            R0000005  4.          
    C0000015  R0000006  9.             R0000007   -2.        
    C0000015  R0000009  1.             R0000010   -48.       
    C0000015  R0000011   -9.           R0000012   -45.       
    C0000015  R0000013   -1.        
    C0000016  OBJROW    12.            R0000002   -26.       
    C0000016  R0000003   -29.          R0000004   -35.       
    C0000016  R0000005  12.            R0000006   -22.       
    C0000016  R0000007   -41.          R0000008  42.         
    C0000016  R0000009  22.            R0000011   -21.       
    C0000016  R0000012  3.             R0000013   -16.       
    C0000016  R0000014   -36.       
    C0000017  OBJROW    36.            R0000001   -27.       
    C0000017  R0000003  35.            R0000004  18.         
    C0000017  R0000005   -37.          R0000006  6.          
    C0000017  R0000007  34.            R0000009   -43.       
    C0000017  R0000010   -31.          R0000013   -36.       
    C0000017  R0000014  24.         
    C0000018  OBJROW    30.            R0000001  21.         
    C0000018  R0000003   -50.          R0000005  33.         
    C0000018  R0000006  41.            R0000007  25.         
    C0000018  R0000009   -14.          R0000011  13.         
    C0000018  R0000012  47.            R0000014   -39.       
    C0000019  OBJROW    6.             R0000001   -32.       
    C0000019  R0000002  2.             R0000003   -40.       
    C0000019  R0000006   -24.          R0000007  15.         
    C0000019  R0000008   -50.          R0000012   -26.       
    C0000019  R0000013  41.            R0000014  37.         
    C0000020  OBJROW     -28.          R0000002  47.         
    C0000020  R0000003  18.            R0000004   -20.       
    C0000020  R0000006  41.            R0000007  6.          
    C0000020  R0000008  45.            R0000009   -17.       
    C0000020  R0000011   -10.          R0000012  26.         
    C0000020  R0000013  46.         
    C0000021  OBJROW     -9.           R0000001  45.         
    C0000021  R0000002   -31.          R0000004  7.          
    C0000021  R0000006  19.            R0000007   -41.       
    C0000021  R0000009  40.            R0000012  30.         
    C0000021  R0000013  48.         
    C0000022  OBJROW     -37.          R0000000   -40.       
    C0000022  R0000001   -3.           R0000002  41.         
    C0000022  R0000003   -20.          R0000004  6.          
    C0000022  R0000005  9.             R0000006  14.         
    C0000022  R0000007   -5.           R0000009  19.         
    C0000022  R0000010  29.            R0000013   -11.       
    C0000022  R0000014   -14.       
    C0000023  OBJROW    39.            R0000000   -41.       
    C0000023  R0000001   -34.          R0000002  43.         
    C0000023  R0000004  44.            R0000005  6.          
    C0000023  R0000006   -17.          R0000007   -24.       
    C0000023  R0000008   -47.          R0000009  49.         
    C0000023  R0000011  39.            R0000012   -36.       
    C0000023  R0000013  41.         
    C0000024  OBJROW     -3.           R0000001   -21.       
    C0000024  R0000002   -40.          R0000003   -43.       
    C0000024  R0000006   -2.           R0000007   -33.       
    C0000024  R0000009   -47.          R0000010   -30.       
    C0000024  R0000011   -50.          R0000012  22.         
    C0000024  R0000013  35.            R0000014   -25.       
    C0000025  OBJROW    18.            R0000001  30.         
    C0000025  R0000003  15.            R0000005   -9.        
    C0000025  R0000006  3.             R0000007  45.         
    C0000025  R0000009   -38.          R0000012  47.         
    C0000025  R0000014   -32.       
    C0000026  OBJROW     -6.           R0000000   -26.       
    C0000026  R0000001  28.            R0000003   -23.       
    C0000026  R0000005   -21.          R0000006  34.         
    C0000026  R0000007   -20.          R0000008  44.         
    C0000026  R0000009  36.            R0000010  5.          
    C0000026  R0000013  16.         
    C0000027  OBJROW    32.            R0000002   -35.       
    C0000027  R0000005  13.            R0000006  25.         
    C0000027  R0000007  5.             R0000009  31.         
    C0000027  R0000010  48.            R0000011   -7.        
    C0000027  R0000014  21.         
    C0000028  OBJROW     -44.          R0000000  19.         
    C0000028  R0000001   -36.          R0000002   -28.       
    C0000028  R0000003   -18.          R0000005   -42.       
    C0000028  R0000006  16.            R0000007  10.         
    C0000028  R0000008   -45.          R0000009  2.          
    C0000028  R0000011   -2.           R0000012  40.         
    C0000028  R0000013   -15.       
    C0000029  OBJROW     -3.           R0000001  35.         
    C0000029  R0000003   -1.           R0000005   -28.       
    C0000029  R0000006   -44.          R0000007  21.         
    C0000029  R0000009  49.            R0000010   -29.       
    C0000029  R0000011  31.            R0000012   -7.        
    C0000029  R0000013   -10.          R0000014   -25.       
RHS
    RHS       R0000000   -168.         R0000001  131.        
    RHS       R0000002   -177.         R0000003   -32.       
    RHS       R0000004   -648.         R0000005  388.        
    RHS       R0000006  512.           R0000007  343.        
    RHS       R0000008  333.           R0000009  19.         
    RHS       R0000010   -192.         R0000011  161.        
    RHS       R0000012  222.           R0000013  127.        
    RHS       R0000014   -80.       
BOUNDS
 UI BOUND     C0000000  500.        
 UI BOUND     C0000001  500.        
 UI BOUND     C0000002  500.        
 UI BOUND     C0000003  500.        
 UI BOUND     C0000004  500.        
 UI BOUND     C0000005  500.        
 UI BOUND     C0000006  500.        
 UI BOUND     C0000007  500.        
 UI BOUND     C0000008  500.        
 UI BOUND     C0000009  500.        
 UI BOUND     C0000010  500.        
 UI BOUND     C0000011  500.        
 UI BOUND     C0000012  500.        
 UI BOUND     C0000013  500.        
 UI BOUND     C0000014  500.        
 UI BOUND     C0000015  500.        
 UI BOUND     C0000016  500.        
 UI BOUND     C0000017  500.        
 UI BOUND     C0000018  500.        
 UI BOUND     C0000019  500.        
 UI BOUND     C0000020  500.        
 UI BOUND     C0000021  500.        
 UI BOUND     C0000022  500.        
 UI BOUND     C0000023  500.        
 UI BOUND     C0000024  500.        
 UI BOUND     C0000025  500.        
 UI BOUND     C0000026  500.        
 UI BOUND     C0000027  500.        
 UI BOUND     C0000028  500.        
 UI BOUND     C0000029  500.        
ENDATA
