NAME          BLANK   
ROWS
 N  OBJROW
 L  R0000000
 L  R0000001
 L  R0000002
 L  R0000003
 L  R0000004
 L  R0000005
 L  R0000006
 L  R0000007
 L  R0000008
 L  R0000009
 L  R0000010
 L  R0000011
 L  R0000012
 L  R0000013
 L  R0000014
COLUMNS
    C0000000  OBJROW    49.            R0000000   -49.       
    C0000000  R0000001   -32.          R0000002   -6.        
    C0000000  R0000003  20.            R0000005  12.         
    C0000000  R0000006   -9.           R0000007  45.         
    C0000000  R0000008   -23.          R0000009  36.         
    C0000000  R0000010   -15.          R0000011   -15.       
    C0000000  R0000012  46.            R0000014   -35.       
    C0000001  OBJROW    3.             R0000000   -11.       
    C0000001  R0000001   -28.          R0000002   -11.       
    C0000001  R0000003  49.            R0000005   -16.       
    C0000001  R0000007  34.            R0000008  23.         
    C0000001  R0000009  31.            R0000010  49.         
    C0000001  R0000011   -12.          R0000012   -7.        
    C0000001  R0000013   -22.       
    C0000002  OBJROW    43.            R0000000   -3.        
    C0000002  R0000001   -6.           R0000002  28.         
    C0000002  R0000003  18.            R0000006  34.         
    C0000002  R0000007   -29.          R0000008   -18.       
    C0000002  R0000009  5.             R0000010   -48.       
    C0000002  R0000011   -50.          R0000012   -42.       
    C0000003  OBJROW    13.            R0000000   -3.        
    C0000003  R0000001   -21.          R0000002  31.         
    C0000003  R0000005  24.            R0000006   -6.        
    C0000003  R0000007   -3.           R0000009   -30.       
    C0000003  R0000010   -27.          R0000011   -17.       
    C0000003  R0000012   -3.           R0000014  5.          
    C0000004  OBJROW     -39.          R0000000  28.         
    C0000004  R0000001   -28.          R0000002   -42.       
    C0000004  R0000003  40.            R0000005   -24.       
    C0000004  R0000006   -35.          R0000008  39.         
    C0000004  R0000009   -2.           R0000010   -2.        
    C0000004  R0000011  48.            R0000012   -12.       
    C0000005  OBJROW    22.            R0000000  27.         
    C0000005  R0000003   -20.          R0000004  17.         
    C0000005  R0000005  32.            R0000006  50.         
    C0000005  R0000007  47.            R0000009   -44.       
    C0000005  R0000010  22.            R0000011   -40.       
    C0000006  OBJROW     -49.          R0000000  34.         
    C0000006  R0000001  31.            R0000002  29.         
    C0000006  R0000005   -33.          R0000006  38.         
    C0000006  R0000007   -30.          R0000008   -37.       
    C0000006  R0000009   -1.           R0000010  5.          
    C0000006  R0000011   -6.           R0000012  34.         
    C0000006  R0000014   -28.       
    C0000007  OBJROW    30.            R0000000   -48.       
    C0000007  R0000001  9.             R0000002   -21.       
    C0000007  R0000003   -32.          R0000004  6.          
    C0000007  R0000005   -5.           R0000006   -9.        
    C0000007  R0000007  11.            R0000008  16.         
    C0000007  R0000010  29.            R0000012   -20.       
    C0000007  R0000013   -13.       
    C0000008  OBJROW     -11.          R0000001   -5.        
    C0000008  R0000002  38.            R0000003  38.         
    C0000008  R0000005   -46.          R0000006   -20.       
    C0000008  R0000007  16.            R0000008  25.         
    C0000008  R0000009  23.            R0000010  31.         
    C0000008  R0000011  9.             R0000012  25.         
    C0000008  R0000013   -44.          R0000014  18.         
    C0000009  OBJROW     -15.          R0000000   -41.       
    C0000009  R0000001  19.            R0000002   -41.       
    C0000009  R0000003  3.             R0000005   -19.       
    C0000009  R0000006  15.            R0000007   -50.       
    C0000009  R0000008  8.             R0000009  36.         
    C0000009  R0000010  42.            R0000014   -43.       
    C0000010  OBJROW     -22.          R0000000   -39.       
    C0000010  R0000001   -9.           R0000003  26.         
    C0000010  R0000004   -11.          R0000005   -10.       
    C0000010  R0000006   -5.           R0000008   -31.       
    C0000010  R0000009  47.            R0000010   -49.       
    C0000010  R0000012   -40.          R0000014  31.         
    C0000011  OBJROW    17.            R0000000  41.         
    C0000011  R0000001   -24.          R0000003   -43.       
    C0000011  R0000005   -37.          R0000006   -5.        
    C0000011  R0000008  44.            R0000009  42.         
    C0000011  R0000010   -9.           R0000011   -39.       
    C0000011  R0000012   -45.          R0000013   -40.       
    C0000012  OBJROW     -16.          R0000000  44.         
    C0000012  R0000001  17.            R0000002  19.         
    C0000012  R0000003   -30.          R0000005  10.         
    C0000012  R0000006  4.             R0000007  30.         
    C0000012  R0000008  35.            R0000009   -7.        
    C0000012  R0000010   -46.          R0000011  10.         
    C0000012  R0000012   -48.       
    C0000013  OBJROW     -13.          R0000000   -13.       
    C0000013  R0000001  42.            R0000002   -28.       
    C0000013  R0000003   -9.           R0000005  35.         
    C0000013  R0000006  37.            R0000007  43.         
    C0000013  R0000008   -48.          R0000009   -48.       
    C0000013  R0000010   -49.          R0000012   -32.       
    C0000014  OBJROW    34.            R0000000  39.         
    C0000014  R0000001   -19.          R0000005  49.         
    C0000014  R0000006   -42.          R0000008   -50.       
    C0000014  R0000009  46.            R0000010  20.         
    C0000014  R0000011  15.            R0000012  24.         
    C0000014  R0000013   -26.          R0000014   -33.       
    C0000015  OBJROW    2.             R0000000   -43.       
    C0000015  R0000002   -23.          R0000003  31.         
    C0000015  R0000004   -45.          R0000005  10.         
    C0000015  R0000006  11.            R0000007  2.          
    C0000015  R0000008  27.            R0000009   -40.       
    C0000015  R0000010  36.            R0000012   -31.       
    C0000015  R0000014   -38.       
    C0000016  OBJROW     -23.          R0000000  27.         
    C0000016  R0000001  32.            R0000002  4.          
    C0000016  R0000003   -8.           R0000004   -50.       
    C0000016  R0000005  29.            R0000006   -44.       
    C0000016  R0000008  48.            R0000009  18.         
    C0000016  R0000011   -1.           R0000012  34.         
    C0000016  R0000013   -46.          R0000014  9.          
    C0000017  OBJROW    23.            R0000000  35.         
    C0000017  R0000001   -5.           R0000002  42.         
    C0000017  R0000003  27.            R0000004  6.          
    C0000017  R0000005   -31.          R0000006   -5.        
    C0000017  R0000007   -16.          R0000008   -16.       
    C0000017  R0000009   -1.           R0000010   -46.       
    C0000017  R0000014   -48.       
    C0000018  OBJROW    4.             R0000000   -22.       
    C0000018  R0000002  21.            R0000003  43.         
    C0000018  R0000005  5.             R0000006  40.         
    C0000018  R0000007  1.             R0000008  2.          
    C0000018  R0000009  45.            R0000010   -29.       
    C0000018  R0000012  48.            R0000013  30.         
    C0000018  R0000014   -39.       
    C0000019  OBJROW     -20.          R0000000   -42.       
    C0000019  R0000002  3.             R0000003  19.         
    C0000019  R0000005   -42.          R0000006   -25.       
    C0000019  R0000007  5.             R0000008  42.         
    C0000019  R0000009  15.            R0000010   -12.       
    C0000019  R0000012  37.            R0000013   -7.        
    C0000019  R0000014   -34.       
    C0000020  OBJROW    31.            R0000000  14.         
    C0000020  R0000001   -5.           R0000002  47.         
    C0000020  R0000003  28.            R0000004  27.         
    C0000020  R0000005   -27.          R0000006   -23.       
    C0000020  R0000007  26.            R0000008  14.         
    C0000020  R0000009  31.            R0000010   -38.       
    C0000020  R0000011   -2.           R0000012   -42.       
    C0000020  R0000013   -43.       
    C0000021  OBJROW     -8.           R0000001  49.         
    C0000021  R0000002   -5.           R0000003   -7.        
    C0000021  R0000004  15.            R0000005   -32.       
    C0000021  R0000006  21.            R0000008  8.          
    C0000021  R0000009   -46.          R0000010  4.          
    C0000021  R0000012   -2.           R0000014  27.         
    C0000022  OBJROW     -6.           R0000001   -5.        
    C0000022  R0000003  41.            R0000005  8.          
    C0000022  R0000006  13.            R0000007   -29.       
    C0000022  R0000008  40.            R0000009   -40.       
    C0000022  R0000010   -30.          R0000011   -8.        
    C0000022  R0000012   -22.       
    C0000023  OBJROW     -21.          R0000000  33.         
    C0000023  R0000001   -21.          R0000002  48.         
    C0000023  R0000003   -35.          R0000004  5.          
    C0000023  R0000005  22.            R0000006   -40.       
    C0000023  R0000007  22.            R0000008  22.         
    C0000023  R0000009  20.            R0000010  23.         
    C0000023  R0000011   -33.          R0000012  41.         
    C0000023  R0000013   -9.        
    C0000024  OBJROW    7.             R0000000   -24.       
    C0000024  R0000002  4.             R0000005  17.         
    C0000024  R0000006   -46.          R0000007  11.         
    C0000024  R0000008   -14.          R0000010  37.         
    C0000024  R0000011   -20.          R0000012  16.         
    C0000024  R0000013   -13.          R0000014   -6.        
    C0000025  OBJROW     -4.           R0000000  41.         
    C0000025  R0000001  47.            R0000002  19.         
    C0000025  R0000003  2.             R0000005  49.         
    C0000025  R0000006  28.            R0000007  27.         
    C0000025  R0000008  46.            R0000010  6.          
    C0000025  R0000011  2.             R0000012  38.         
    C0000025  R0000013  48.         
    C0000026  OBJROW     -45.          R0000000   -33.       
    C0000026  R0000001  18.            R0000002  45.         
    C0000026  R0000003   -21.          R0000004   -24.       
    C0000026  R0000005   -11.          R0000006   -45.       
    C0000026  R0000008   -26.          R0000009   -28.       
    C0000026  R0000010   -16.          R0000012   -50.       
    C0000027  OBJROW     -44.          R0000000  50.         
    C0000027  R0000002   -18.          R0000003   -27.       
    C0000027  R0000006  41.            R0000007   -27.       
    C0000027  R0000008   -8.           R0000009   -35.       
    C0000027  R0000010   -20.          R0000011  48.         
    C0000027  R0000012  40.            R0000013  2.          
    C0000028  OBJROW     -29.          R0000000  24.         
    C0000028  R0000001  39.            R0000002   -45.       
    C0000028  R0000003  44.            R0000004  37.         
    C0000028  R0000005   -43.          R0000006   -33.       
    C0000028  R0000007  28.            R0000008   -22.       
    C0000028  R0000009   -20.          R0000010  12.         
    C0000028  R0000012  6.          
    C0000029  OBJROW    14.            R0000000   -9.        
    C0000029  R0000002  12.            R0000003   -16.       
    C0000029  R0000005  15.            R0000006  17.         
    C0000029  R0000007   -10.          R0000008   -11.       
    C0000029  R0000010   -3.           R0000011   -17.       
    C0000029  R0000012   -13.          R0000013   -26.       
    C0000029  R0000014   -43.       
RHS
    RHS       R0000000  169.           R0000001  470.        
    RHS       R0000002  19.            R0000003   -220.      
    RHS       R0000004   -151.         R0000005  354.        
    RHS       R0000006  425.           R0000007  233.        
    RHS       R0000008  192.           R0000009   -271.      
    RHS       R0000010   -137.         R0000011   -153.      
    RHS       R0000012   -232.         R0000013   -170.      
    RHS       R0000014   -686.      
BOUNDS
 UI BOUND     C0000000  500.        
 UI BOUND     C0000001  500.        
 UI BOUND     C0000002  500.        
 UI BOUND     C0000003  500.        
 UI BOUND     C0000004  500.        
 UI BOUND     C0000005  500.        
 UI BOUND     C0000006  500.        
 UI BOUND     C0000007  500.        
 UI BOUND     C0000008  500.        
 UI BOUND     C0000009  500.        
 UI BOUND     C0000010  500.        
 UI BOUND     C0000011  500.        
 UI BOUND     C0000012  500.        
 UI BOUND     C0000013  500.        
 UI BOUND     C0000014  500.        
 UI BOUND     C0000015  500.        
 UI BOUND     C0000016  500.        
 UI BOUND     C0000017  500.        
 UI BOUND     C0000018  500.        
 UI BOUND     C0000019  500.        
 UI BOUND     C0000020  500.        
 UI BOUND     C0000021  500.        
 UI BOUND     C0000022  500.        
 UI BOUND     C0000023  500.        
 UI BOUND     C0000024  500.        
 UI BOUND     C0000025  500.        
 UI BOUND     C0000026  500.        
 UI BOUND     C0000027  500.        
 UI BOUND     C0000028  500.        
 UI BOUND     C0000029  500.        
ENDATA
