NAME          BLANK   
ROWS
 N  OBJROW
 L  R0000000
 L  R0000001
 L  R0000002
 L  R0000003
 L  R0000004
 L  R0000005
 L  R0000006
 L  R0000007
 L  R0000008
 L  R0000009
 L  R0000010
 L  R0000011
 L  R0000012
 L  R0000013
 L  R0000014
COLUMNS
    C0000000  OBJROW    36.            R0000000  34.         
    C0000000  R0000003  3.             R0000004  22.         
    C0000000  R0000005  21.            R0000006   -49.       
    C0000000  R0000007  25.            R0000008   -32.       
    C0000000  R0000009   -22.          R0000010   -13.       
    C0000000  R0000012  31.            R0000013   -30.       
    C0000000  R0000014  10.         
    C0000001  OBJROW     -42.          R0000000  26.         
    C0000001  R0000001   -36.          R0000003   -25.       
    C0000001  R0000004  46.            R0000005   -35.       
    C0000001  R0000006  39.            R0000007   -7.        
    C0000001  R0000008  35.            R0000010   -16.       
    C0000001  R0000011  22.            R0000012   -36.       
    C0000001  R0000013  3.             R0000014  27.         
    C0000002  OBJROW    30.            R0000000   -14.       
    C0000002  R0000001   -14.          R0000003  13.         
    C0000002  R0000004  4.             R0000005   -39.       
    C0000002  R0000006   -17.          R0000007  39.         
    C0000002  R0000008   -45.          R0000010   -10.       
    C0000002  R0000012  38.            R0000013  42.         
    C0000002  R0000014  15.         
    C0000003  OBJROW    49.            R0000000   -17.       
    C0000003  R0000001  44.            R0000003  35.         
    C0000003  R0000004   -1.           R0000005   -27.       
    C0000003  R0000006  24.            R0000007   -33.       
    C0000003  R0000008   -7.           R0000010   -36.       
    C0000003  R0000011  7.          
    C0000004  OBJROW     -1.           R0000002   -4.        
    C0000004  R0000003   -45.          R0000004  5.          
    C0000004  R0000005   -28.          R0000006  29.         
    C0000004  R0000007   -32.          R0000008  14.         
    C0000004  R0000010   -35.          R0000011   -5.        
    C0000004  R0000014   -19.       
    C0000005  OBJROW    39.            R0000003  44.         
    C0000005  R0000004  14.            R0000005   -10.       
    C0000005  R0000006  1.             R0000007  43.         
    C0000005  R0000010   -7.           R0000011  26.         
    C0000005  R0000014   -46.       
    C0000006  OBJROW     -6.           R0000000  34.         
    C0000006  R0000001  31.            R0000003   -47.       
    C0000006  R0000004   -6.           R0000005   -44.       
    C0000006  R0000006   -46.          R0000007   -50.       
    C0000006  R0000008   -5.           R0000009   -3.        
    C0000006  R0000010   -14.          R0000011  6.          
    C0000006  R0000012  45.            R0000013   -7.        
    C0000007  OBJROW     -44.          R0000000   -42.       
    C0000007  R0000003   -46.          R0000004   -12.       
    C0000007  R0000006   -45.          R0000007  2.          
    C0000007  R0000008  23.            R0000009   -12.       
    C0000007  R0000010   -7.           R0000012  11.         
    C0000007  R0000013  9.             R0000014  27.         
    C0000008  OBJROW    27.            R0000001  12.         
    C0000008  R0000003  26.            R0000004   -19.       
    C0000008  R0000005   -22.          R0000006   -6.        
    C0000008  R0000007   -38.          R0000008  31.         
    C0000008  R0000010  2.             R0000011  25.         
    C0000008  R0000012   -33.          R0000014   -11.       
    C0000009  OBJROW     -31.          R0000000  25.         
    C0000009  R0000001   -1.           R0000002   -47.       
    C0000009  R0000003  46.            R0000005   -42.       
    C0000009  R0000006  5.             R0000007  32.         
    C0000009  R0000008  16.            R0000009   -16.       
    C0000009  R0000010   -47.          R0000011   -39.       
    C0000009  R0000013   -6.        
    C0000010  OBJROW    49.            R0000000   -12.       
    C0000010  R0000002  25.            R0000003   -43.       
    C0000010  R0000005  22.            R0000006  6.          
    C0000010  R0000007  17.            R0000008   -9.        
    C0000010  R0000009   -40.          R0000010   -10.       
    C0000010  R0000011  32.            R0000013  44.         
    C0000010  R0000014   -12.       
    C0000011  OBJROW     -30.          R0000000   -42.       
    C0000011  R0000001  31.            R0000002  43.         
    C0000011  R0000003   -17.          R0000005  36.         
    C0000011  R0000006  44.            R0000007   -45.       
    C0000011  R0000008   -13.          R0000009  46.         
    C0000011  R0000010   -36.          R0000011   -36.       
    C0000011  R0000012   -22.          R0000013  15.         
    C0000011  R0000014   -5.        
    C0000012  OBJROW     -48.          R0000000   -24.       
    C0000012  R0000001   -26.          R0000002   -13.       
    C0000012  R0000003   -40.          R0000004   -15.       
    C0000012  R0000005   -32.          R0000006   -42.       
    C0000012  R0000007  28.            R0000010  14.         
    C0000012  R0000012   -39.          R0000013  17.         
    C0000012  R0000014   -14.       
    C0000013  OBJROW    2.             R0000000   -39.       
    C0000013  R0000003  34.            R0000005  42.         
    C0000013  R0000006  13.            R0000007  7.          
    C0000013  R0000008   -43.          R0000010  16.         
    C0000013  R0000011   -39.          R0000013  9.          
    C0000014  OBJROW     -31.          R0000000  21.         
    C0000014  R0000001   -23.          R0000002   -2.        
    C0000014  R0000003   -26.          R0000005  18.         
    C0000014  R0000006   -19.          R0000007   -44.       
    C0000014  R0000008  21.            R0000009   -38.       
    C0000014  R0000010   -18.          R0000011   -9.        
    C0000014  R0000014  38.         
    C0000015  OBJROW     -11.          R0000000  17.         
    C0000015  R0000001  42.            R0000002   -37.       
    C0000015  R0000003   -3.           R0000004   -8.        
    C0000015  R0000005   -40.          R0000006  15.         
    C0000015  R0000007  34.            R0000008  37.         
    C0000015  R0000009   -38.          R0000010  28.         
    C0000015  R0000011  1.             R0000012  33.         
    C0000015  R0000013  2.             R0000014  14.         
    C0000016  OBJROW     -1.           R0000000  28.         
    C0000016  R0000001   -31.          R0000003  31.         
    C0000016  R0000005  9.             R0000006   -8.        
    C0000016  R0000008   -27.          R0000009  30.         
    C0000016  R0000010   -25.          R0000011  37.         
    C0000016  R0000013  12.            R0000014  38.         
    C0000017  OBJROW    21.            R0000000   -39.       
    C0000017  R0000001  24.            R0000003  1.          
    C0000017  R0000005   -12.          R0000006   -27.       
    C0000017  R0000007   -12.          R0000008  28.         
    C0000017  R0000009   -44.          R0000010   -30.       
    C0000017  R0000014   -49.       
    C0000018  OBJROW    31.            R0000000  35.         
    C0000018  R0000001  45.            R0000002  24.         
    C0000018  R0000003  43.            R0000005   -49.       
    C0000018  R0000006  48.            R0000007  17.         
    C0000018  R0000008  44.            R0000009   -43.       
    C0000018  R0000010  40.            R0000011   -38.       
    C0000019  OBJROW     -25.          R0000000  24.         
    C0000019  R0000003  3.             R0000005   -44.       
    C0000019  R0000006   -3.           R0000007   -45.       
    C0000019  R0000008   -47.          R0000009   -49.       
    C0000019  R0000013   -41.       
    C0000020  OBJROW     -20.          R0000000  26.         
    C0000020  R0000001   -12.          R0000003  43.         
    C0000020  R0000005  45.            R0000006   -34.       
    C0000020  R0000007  4.             R0000008  37.         
    C0000020  R0000011  49.            R0000013  22.         
    C0000021  OBJROW     -44.          R0000000  18.         
    C0000021  R0000001  11.            R0000002   -36.       
    C0000021  R0000003   -38.          R0000005   -41.       
    C0000021  R0000006   -31.          R0000007   -5.        
    C0000021  R0000010   -33.          R0000012  33.         
    C0000021  R0000014   -35.       
    C0000022  OBJROW     -26.          R0000000   -46.       
    C0000022  R0000001  27.            R0000002   -33.       
    C0000022  R0000003  13.            R0000006   -21.       
    C0000022  R0000008   -17.          R0000010   -44.       
    C0000022  R0000011   -23.          R0000012   -9.        
    C0000022  R0000013  35.         
    C0000023  OBJROW     -25.          R0000001   -26.       
    C0000023  R0000003   -3.           R0000005  5.          
    C0000023  R0000006  43.            R0000007  17.         
    C0000023  R0000008   -12.          R0000009  42.         
    C0000023  R0000012   -30.          R0000013  36.         
    C0000024  OBJROW    27.            R0000000   -41.       
    C0000024  R0000001  18.            R0000003  4.          
    C0000024  R0000005   -43.          R0000006  8.          
    C0000024  R0000007  30.            R0000008  36.         
    C0000025  OBJROW     -45.          R0000000   -12.       
    C0000025  R0000001   -12.          R0000003   -34.       
    C0000025  R0000004  20.            R0000006  21.         
    C0000025  R0000007  42.            R0000010   -25.       
    C0000025  R0000012  41.            R0000013  11.         
    C0000025  R0000014   -9.        
    C0000026  OBJROW    10.            R0000002   -40.       
    C0000026  R0000003   -8.           R0000004   -8.        
    C0000026  R0000005   -6.           R0000006   -10.       
    C0000026  R0000007   -15.          R0000008  33.         
    C0000026  R0000009  10.            R0000010  29.         
    C0000026  R0000013   -31.          R0000014   -48.       
    C0000027  OBJROW     -24.          R0000000   -33.       
    C0000027  R0000001   -26.          R0000002  32.         
    C0000027  R0000003  3.             R0000004  33.         
    C0000027  R0000005   -44.          R0000006  14.         
    C0000027  R0000007  43.            R0000009  46.         
    C0000027  R0000010   -37.          R0000011   -12.       
    C0000027  R0000012  33.            R0000013   -12.       
    C0000028  OBJROW     -39.          R0000000  19.         
    C0000028  R0000001  24.            R0000002  26.         
    C0000028  R0000003   -15.          R0000004  23.         
    C0000028  R0000005  17.            R0000006  28.         
    C0000028  R0000007  25.            R0000008  50.         
    C0000028  R0000009   -36.          R0000010   -24.       
    C0000028  R0000012   -12.       
    C0000029  OBJROW     -13.          R0000000  18.         
    C0000029  R0000001  7.             R0000003   -22.       
    C0000029  R0000005   -27.          R0000006   -27.       
    C0000029  R0000007   -14.          R0000009   -13.       
    C0000029  R0000010  12.            R0000013   -13.       
    C0000029  R0000014  38.         
RHS
    RHS       R0000000  42.            R0000001  257.        
    RHS       R0000002   -215.         R0000003   -251.      
    RHS       R0000004  215.           R0000005   -464.      
    RHS       R0000006   -122.         R0000007   -235.      
    RHS       R0000008   -217.         R0000009   -159.      
    RHS       R0000010   -794.         R0000011   -187.      
    RHS       R0000012  130.           R0000013   -48.       
    RHS       R0000014   -180.      
BOUNDS
 UI BOUND     C0000000  500.        
 UI BOUND     C0000001  500.        
 UI BOUND     C0000002  500.        
 UI BOUND     C0000003  500.        
 UI BOUND     C0000004  500.        
 UI BOUND     C0000005  500.        
 UI BOUND     C0000006  500.        
 UI BOUND     C0000007  500.        
 UI BOUND     C0000008  500.        
 UI BOUND     C0000009  500.        
 UI BOUND     C0000010  500.        
 UI BOUND     C0000011  500.        
 UI BOUND     C0000012  500.        
 UI BOUND     C0000013  500.        
 UI BOUND     C0000014  500.        
 UI BOUND     C0000015  500.        
 UI BOUND     C0000016  500.        
 UI BOUND     C0000017  500.        
 UI BOUND     C0000018  500.        
 UI BOUND     C0000019  500.        
 UI BOUND     C0000020  500.        
 UI BOUND     C0000021  500.        
 UI BOUND     C0000022  500.        
 UI BOUND     C0000023  500.        
 UI BOUND     C0000024  500.        
 UI BOUND     C0000025  500.        
 UI BOUND     C0000026  500.        
 UI BOUND     C0000027  500.        
 UI BOUND     C0000028  500.        
 UI BOUND     C0000029  500.        
ENDATA
