NAME          BLANK   
ROWS
 N  OBJROW
 L  R0000000
 L  R0000001
 L  R0000002
 L  R0000003
 L  R0000004
 L  R0000005
 L  R0000006
 L  R0000007
 L  R0000008
 L  R0000009
COLUMNS
    C0000000  OBJROW    19.            R0000000  10.         
    C0000000  R0000002  31.            R0000003  4.          
    C0000000  R0000004   -30.          R0000005   -32.       
    C0000000  R0000006   -30.          R0000007   -9.        
    C0000000  R0000008   -7.           R0000009   -38.       
    C0000001  OBJROW    48.            R0000001  9.          
    C0000001  R0000004   -28.          R0000006  40.         
    C0000001  R0000007  32.            R0000008   -29.       
    C0000002  OBJROW     -4.           R0000002  37.         
    C0000002  R0000003  48.            R0000004   -4.        
    C0000002  R0000006  40.            R0000008   -10.       
    C0000003  OBJROW    26.            R0000001   -42.       
    C0000003  R0000002   -21.          R0000006  40.         
    C0000003  R0000007  4.             R0000008   -48.       
    C0000004  OBJROW     -21.          R0000000   -20.       
    C0000004  R0000001   -27.          R0000002  42.         
    C0000004  R0000004  26.            R0000005   -17.       
    C0000004  R0000008  43.            R0000009  49.         
    C0000005  OBJROW     -33.          R0000000   -15.       
    C0000005  R0000002  10.            R0000004   -25.       
    C0000005  R0000008   -32.          R0000009  44.         
    C0000006  OBJROW    16.            R0000000  46.         
    C0000006  R0000002   -36.          R0000003   -27.       
    C0000006  R0000004  43.            R0000005   -28.       
    C0000006  R0000006   -12.          R0000008   -34.       
    C0000006  R0000009   -27.       
    C0000007  OBJROW    35.            R0000000  44.         
    C0000007  R0000003   -30.          R0000004  29.         
    C0000007  R0000006   -11.          R0000008   -29.       
    C0000008  OBJROW     -16.          R0000001  22.         
    C0000008  R0000003   -46.          R0000004  34.         
    C0000008  R0000006  34.            R0000008   -33.       
    C0000009  OBJROW    45.            R0000004  9.          
    C0000009  R0000005  15.            R0000006  27.         
    C0000009  R0000007  2.             R0000008  14.         
    C0000010  OBJROW     -11.          R0000001   -42.       
    C0000010  R0000002   -46.          R0000003  27.         
    C0000010  R0000004  33.            R0000006  46.         
    C0000010  R0000007  50.            R0000008   -24.       
    C0000011  OBJROW    19.            R0000001  42.         
    C0000011  R0000002   -50.          R0000003   -23.       
    C0000011  R0000004   -21.          R0000005   -12.       
    C0000011  R0000006  40.            R0000008  35.         
    C0000011  R0000009  40.         
    C0000012  OBJROW    10.            R0000000   -12.       
    C0000012  R0000004   -20.          R0000006   -28.       
    C0000012  R0000008   -4.           R0000009   -18.       
    C0000013  OBJROW     -28.          R0000001   -30.       
    C0000013  R0000002   -37.          R0000003  38.         
    C0000013  R0000004  37.            R0000006   -50.       
    C0000013  R0000008   -19.       
    C0000014  OBJROW     -14.          R0000000  21.         
    C0000014  R0000003   -49.          R0000004   -46.       
    C0000014  R0000006   -6.           R0000007  25.         
    C0000014  R0000008  7.             R0000009  12.         
    C0000015  OBJROW     -27.          R0000000   -16.       
    C0000015  R0000001   -19.          R0000002  37.         
    C0000015  R0000004  41.            R0000005   -44.       
    C0000015  R0000006   -22.          R0000007  13.         
    C0000015  R0000008   -2.           R0000009   -5.        
    C0000016  OBJROW    18.            R0000000   -4.        
    C0000016  R0000002  45.            R0000003  35.         
    C0000016  R0000004  25.            R0000006  27.         
    C0000016  R0000007   -45.          R0000008  10.         
    C0000016  R0000009   -41.       
    C0000017  OBJROW    32.            R0000000  17.         
    C0000017  R0000001  33.            R0000002  6.          
    C0000017  R0000003   -31.          R0000004  50.         
    C0000017  R0000005  22.            R0000006  3.          
    C0000017  R0000008  9.             R0000009   -24.       
    C0000018  OBJROW    13.            R0000000   -40.       
    C0000018  R0000001   -11.          R0000002   -27.       
    C0000018  R0000004   -21.          R0000006  39.         
    C0000018  R0000007   -44.          R0000008   -5.        
    C0000019  OBJROW    28.            R0000000  24.         
    C0000019  R0000001  35.            R0000003  15.         
    C0000019  R0000004   -35.          R0000005   -41.       
    C0000019  R0000006   -11.          R0000007  12.         
    C0000019  R0000008   -8.           R0000009  30.         
    C0000020  OBJROW     -33.          R0000001   -5.        
    C0000020  R0000002   -35.          R0000004   -24.       
    C0000020  R0000006  19.            R0000008   -36.       
    C0000021  OBJROW     -21.          R0000001  29.         
    C0000021  R0000002   -6.           R0000004   -43.       
    C0000021  R0000005  34.            R0000006  2.          
    C0000021  R0000007   -42.          R0000008   -6.        
    C0000021  R0000009   -4.        
    C0000022  OBJROW    11.            R0000000   -17.       
    C0000022  R0000001   -50.          R0000003   -37.       
    C0000022  R0000004  9.             R0000005  1.          
    C0000022  R0000006   -47.          R0000008   -44.       
    C0000023  OBJROW     -24.          R0000004   -7.        
    C0000023  R0000005   -48.          R0000008   -12.       
    C0000023  R0000009   -37.       
    C0000024  OBJROW    36.            R0000003  8.          
    C0000024  R0000004   -22.          R0000006   -33.       
    C0000024  R0000008   -37.       
RHS
    RHS       R0000000  35.            R0000001  162.        
    RHS       R0000002   -57.          R0000003   -268.      
    RHS       R0000004   -311.         R0000005   -105.      
    RHS       R0000006  215.           R0000007   -33.       
    RHS       R0000008   -167.         R0000009  110.        
BOUNDS
 UI BOUND     C0000000  500.        
 UI BOUND     C0000001  500.        
 UI BOUND     C0000002  500.        
 UI BOUND     C0000003  500.        
 UI BOUND     C0000004  500.        
 UI BOUND     C0000005  500.        
 UI BOUND     C0000006  500.        
 UI BOUND     C0000007  500.        
 UI BOUND     C0000008  500.        
 UI BOUND     C0000009  500.        
 UI BOUND     C0000010  500.        
 UI BOUND     C0000011  500.        
 UI BOUND     C0000012  500.        
 UI BOUND     C0000013  500.        
 UI BOUND     C0000014  500.        
 UI BOUND     C0000015  500.        
 UI BOUND     C0000016  500.        
 UI BOUND     C0000017  500.        
 UI BOUND     C0000018  500.        
 UI BOUND     C0000019  500.        
 UI BOUND     C0000020  500.        
 UI BOUND     C0000021  500.        
 UI BOUND     C0000022  500.        
 UI BOUND     C0000023  500.        
 UI BOUND     C0000024  500.        
ENDATA
