NAME          BLANK   
ROWS
 N  OBJROW
 L  R0000000
 L  R0000001
 L  R0000002
 L  R0000003
 L  R0000004
 L  R0000005
 L  R0000006
 L  R0000007
 L  R0000008
 L  R0000009
COLUMNS
    C0000000  OBJROW     -12.          R0000000   -46.       
    C0000000  R0000003   -49.          R0000005  7.          
    C0000000  R0000006   -16.          R0000008   -12.       
    C0000000  R0000009  50.         
    C0000001  OBJROW     -15.          R0000000   -34.       
    C0000001  R0000001   -36.          R0000002   -15.       
    C0000001  R0000005   -44.          R0000006  26.         
    C0000001  R0000007   -32.          R0000008  45.         
    C0000001  R0000009  17.         
    C0000002  OBJROW    27.            R0000000  13.         
    C0000002  R0000005  18.            R0000006  32.         
    C0000002  R0000007  38.            R0000008  9.          
    C0000002  R0000009   -37.       
    C0000003  OBJROW    1.             R0000000   -50.       
    C0000003  R0000001   -2.           R0000005  29.         
    C0000003  R0000006  19.            R0000007  34.         
    C0000003  R0000008  17.         
    C0000004  OBJROW    4.             R0000000  6.          
    C0000004  R0000001  13.            R0000003   -45.       
    C0000004  R0000004  17.            R0000005  34.         
    C0000004  R0000006   -41.          R0000008   -46.       
    C0000005  OBJROW     -31.          R0000000  36.         
    C0000005  R0000001   -50.          R0000004  14.         
    C0000005  R0000005   -29.          R0000006   -45.       
    C0000005  R0000007  11.            R0000008  44.         
    C0000006  OBJROW    45.            R0000000  33.         
    C0000006  R0000001   -47.          R0000004   -9.        
    C0000006  R0000005   -32.          R0000006   -1.        
    C0000006  R0000008   -44.       
    C0000007  OBJROW     -29.          R0000000   -3.        
    C0000007  R0000003  14.            R0000004  24.         
    C0000007  R0000005   -22.          R0000006  4.          
    C0000007  R0000007  23.            R0000008   -50.       
    C0000007  R0000009   -39.       
    C0000008  OBJROW     -41.          R0000000   -50.       
    C0000008  R0000001  34.            R0000002   -42.       
    C0000008  R0000006  27.            R0000008   -41.       
    C0000008  R0000009  34.         
    C0000009  OBJROW     -25.          R0000000  41.         
    C0000009  R0000005  42.            R0000008  28.         
    C0000009  R0000009   -1.        
    C0000010  OBJROW     -19.          R0000000  6.          
    C0000010  R0000005   -9.           R0000008   -12.       
    C0000010  R0000009  34.         
    C0000011  OBJROW    31.            R0000000   -17.       
    C0000011  R0000001   -40.          R0000002  33.         
    C0000011  R0000005  31.            R0000006   -4.        
    C0000011  R0000008   -20.          R0000009  8.          
    C0000012  OBJROW    10.            R0000000   -23.       
    C0000012  R0000001   -35.          R0000004  8.          
    C0000012  R0000008   -41.          R0000009   -13.       
    C0000013  OBJROW     -7.           R0000003   -16.       
    C0000013  R0000005  42.            R0000007   -14.       
    C0000013  R0000008   -14.          R0000009  10.         
    C0000014  OBJROW    41.            R0000000  43.         
    C0000014  R0000001  34.            R0000003   -15.       
    C0000014  R0000005  49.            R0000008   -38.       
    C0000014  R0000009  1.          
    C0000015  OBJROW     -20.          R0000000   -37.       
    C0000015  R0000001   -40.          R0000002  14.         
    C0000015  R0000003   -49.          R0000005  9.          
    C0000015  R0000008  47.         
    C0000016  OBJROW     -14.          R0000000  5.          
    C0000016  R0000002   -4.           R0000003  6.          
    C0000016  R0000004   -22.          R0000005  10.         
    C0000016  R0000008  3.             R0000009   -49.       
    C0000017  OBJROW     -16.          R0000000  25.         
    C0000017  R0000001   -34.          R0000002   -35.       
    C0000017  R0000004  31.            R0000005  3.          
    C0000017  R0000006  17.            R0000008  19.         
    C0000017  R0000009   -13.       
    C0000018  OBJROW     -11.          R0000000  21.         
    C0000018  R0000001   -42.          R0000008  29.         
    C0000018  R0000009   -13.       
    C0000019  OBJROW    40.            R0000000   -9.        
    C0000019  R0000001  5.             R0000004   -24.       
    C0000019  R0000005   -2.           R0000006   -28.       
    C0000019  R0000007   -39.          R0000008  38.         
    C0000019  R0000009   -47.       
    C0000020  OBJROW     -31.          R0000000  19.         
    C0000020  R0000002   -41.          R0000004   -12.       
    C0000020  R0000005   -42.          R0000008  12.         
    C0000020  R0000009   -30.       
    C0000021  OBJROW     -22.          R0000000   -35.       
    C0000021  R0000005   -5.           R0000006   -45.       
    C0000021  R0000007  30.            R0000008  16.         
    C0000022  OBJROW    40.            R0000000   -13.       
    C0000022  R0000001  6.             R0000004  43.         
    C0000022  R0000005   -38.          R0000007  13.         
    C0000022  R0000008   -49.       
    C0000023  OBJROW     -13.          R0000000   -29.       
    C0000023  R0000001   -2.           R0000002   -34.       
    C0000023  R0000004  11.            R0000005  18.         
    C0000023  R0000007   -23.          R0000008  39.         
    C0000023  R0000009  37.         
    C0000024  OBJROW    22.            R0000000   -27.       
    C0000024  R0000004   -6.           R0000005  26.         
    C0000024  R0000008   -42.          R0000009   -16.       
    C0000025  OBJROW     -27.          R0000000   -10.       
    C0000025  R0000001  26.            R0000003   -20.       
    C0000025  R0000006  42.            R0000007   -40.       
    C0000025  R0000008   -44.          R0000009  41.         
    C0000026  OBJROW    34.            R0000000   -37.       
    C0000026  R0000003   -20.          R0000004  44.         
    C0000026  R0000005   -7.           R0000008   -23.       
    C0000026  R0000009   -27.       
    C0000027  OBJROW    5.             R0000000  20.         
    C0000027  R0000002   -32.          R0000003  50.         
    C0000027  R0000004  34.            R0000005  41.         
    C0000027  R0000007  50.            R0000008   -41.       
    C0000027  R0000009   -5.        
    C0000028  OBJROW    28.            R0000000   -12.       
    C0000028  R0000005   -18.          R0000006  12.         
    C0000028  R0000008  50.            R0000009   -47.       
    C0000029  OBJROW    33.            R0000000   -19.       
    C0000029  R0000001   -17.          R0000002  25.         
    C0000029  R0000004  13.            R0000005   -10.       
    C0000029  R0000008  7.             R0000009  35.         
RHS
    RHS       R0000000   -541.         R0000001   -320.      
    RHS       R0000002   -20.          R0000003   -160.      
    RHS       R0000004  198.           R0000005  163.        
    RHS       R0000006   -266.         R0000007  215.        
    RHS       R0000008   -96.          R0000009   -203.      
BOUNDS
 UI BOUND     C0000000  500.        
 UI BOUND     C0000001  500.        
 UI BOUND     C0000002  500.        
 UI BOUND     C0000003  500.        
 UI BOUND     C0000004  500.        
 UI BOUND     C0000005  500.        
 UI BOUND     C0000006  500.        
 UI BOUND     C0000007  500.        
 UI BOUND     C0000008  500.        
 UI BOUND     C0000009  500.        
 UI BOUND     C0000010  500.        
 UI BOUND     C0000011  500.        
 UI BOUND     C0000012  500.        
 UI BOUND     C0000013  500.        
 UI BOUND     C0000014  500.        
 UI BOUND     C0000015  500.        
 UI BOUND     C0000016  500.        
 UI BOUND     C0000017  500.        
 UI BOUND     C0000018  500.        
 UI BOUND     C0000019  500.        
 UI BOUND     C0000020  500.        
 UI BOUND     C0000021  500.        
 UI BOUND     C0000022  500.        
 UI BOUND     C0000023  500.        
 UI BOUND     C0000024  500.        
 UI BOUND     C0000025  500.        
 UI BOUND     C0000026  500.        
 UI BOUND     C0000027  500.        
 UI BOUND     C0000028  500.        
 UI BOUND     C0000029  500.        
ENDATA
