NAME          BLANK   
ROWS
 N  OBJROW
 L  R0000000
 L  R0000001
 L  R0000002
 L  R0000003
 L  R0000004
COLUMNS
    C0000000  OBJROW     -25.          R0000000   -30.       
    C0000000  R0000001  22.            R0000002  2.          
    C0000000  R0000003   -32.       
    C0000001  OBJROW    2.             R0000000   -41.       
    C0000001  R0000001   -30.          R0000002   -31.       
    C0000001  R0000003   -48.          R0000004  2.          
    C0000002  OBJROW     -21.          R0000001   -49.       
    C0000002  R0000002   -5.           R0000003  37.         
    C0000002  R0000004  29.         
    C0000003  OBJROW     -17.          R0000000   -6.        
    C0000003  R0000001   -28.          R0000002   -38.       
    C0000003  R0000003   -10.          R0000004   -29.       
    C0000004  OBJROW     -12.          R0000000  8.          
    C0000004  R0000001   -43.          R0000002   -6.        
    C0000005  OBJROW    44.            R0000001  40.         
    C0000005  R0000002   -28.          R0000003   -16.       
    C0000005  R0000004  26.         
    C0000006  OBJROW    38.            R0000000  17.         
    C0000006  R0000001   -8.           R0000002  45.         
    C0000006  R0000003  26.            R0000004   -50.       
    C0000007  OBJROW     -9.           R0000001  45.         
    C0000007  R0000002   -33.          R0000003  16.         
    C0000007  R0000004  1.          
    C0000008  OBJROW     -35.          R0000000   -47.       
    C0000008  R0000001  50.            R0000004   -48.       
    C0000009  OBJROW     -35.          R0000001   -9.        
RHS
    RHS       R0000000   -150.         R0000001   -321.      
    RHS       R0000002   -187.         R0000003   -157.      
    RHS       R0000004  99.         
BOUNDS
 UI BOUND     C0000000  500.        
 UI BOUND     C0000001  500.        
 UI BOUND     C0000002  500.        
 UI BOUND     C0000003  500.        
 UI BOUND     C0000004  500.        
 UI BOUND     C0000005  500.        
 UI BOUND     C0000006  500.        
 UI BOUND     C0000007  500.        
 UI BOUND     C0000008  500.        
 UI BOUND     C0000009  500.        
ENDATA
