NAME          BLANK   
ROWS
 N  OBJROW
 L  R0000000
 L  R0000001
 L  R0000002
 L  R0000003
 L  R0000004
 L  R0000005
 L  R0000006
 L  R0000007
 L  R0000008
 L  R0000009
COLUMNS
    C0000000  OBJROW    1.             R0000000  47.         
    C0000000  R0000003  38.            R0000004   -47.       
    C0000000  R0000005   -38.          R0000006  26.         
    C0000000  R0000007   -15.          R0000009  36.         
    C0000001  OBJROW    41.            R0000000   -29.       
    C0000001  R0000003   -2.           R0000004   -20.       
    C0000001  R0000005   -20.          R0000008  45.         
    C0000001  R0000009  38.         
    C0000002  OBJROW    18.            R0000000   -39.       
    C0000002  R0000001  3.             R0000002  28.         
    C0000002  R0000003   -49.          R0000004   -12.       
    C0000002  R0000005  45.            R0000007  19.         
    C0000002  R0000008   -42.          R0000009   -22.       
    C0000003  OBJROW    31.            R0000000  42.         
    C0000003  R0000001   -13.          R0000004  40.         
    C0000003  R0000005  42.            R0000007  47.         
    C0000003  R0000008   -32.          R0000009  12.         
    C0000004  OBJROW    25.            R0000000  36.         
    C0000004  R0000001   -9.           R0000003  8.          
    C0000004  R0000004  23.            R0000005  29.         
    C0000004  R0000007  25.            R0000008  41.         
    C0000004  R0000009   -45.       
    C0000005  OBJROW    12.            R0000000   -17.       
    C0000005  R0000001   -35.          R0000003  39.         
    C0000005  R0000004  13.            R0000005   -6.        
    C0000005  R0000006   -17.          R0000007  19.         
    C0000005  R0000008   -7.        
    C0000006  OBJROW     -19.          R0000000   -44.       
    C0000006  R0000001  49.            R0000002  19.         
    C0000006  R0000003  23.            R0000005   -14.       
    C0000006  R0000006   -13.       
    C0000007  OBJROW    16.            R0000003   -27.       
    C0000007  R0000004  39.            R0000006   -38.       
    C0000007  R0000009   -34.       
    C0000008  OBJROW    14.            R0000001   -19.       
    C0000008  R0000002  50.            R0000003   -21.       
    C0000008  R0000005   -29.          R0000008  14.         
    C0000009  OBJROW    37.            R0000000   -43.       
    C0000009  R0000001   -39.          R0000002   -41.       
    C0000009  R0000003  3.             R0000004  21.         
    C0000009  R0000005  18.            R0000006  31.         
    C0000009  R0000007   -1.           R0000008  49.         
    C0000009  R0000009  47.         
    C0000010  OBJROW     -46.          R0000000   -34.       
    C0000010  R0000001  46.            R0000002   -22.       
    C0000010  R0000003  42.            R0000005  1.          
    C0000010  R0000007   -20.          R0000008   -42.       
    C0000010  R0000009   -39.       
    C0000011  OBJROW     -36.          R0000001  49.         
    C0000011  R0000002   -11.          R0000003  26.         
    C0000011  R0000004   -10.          R0000005   -24.       
    C0000011  R0000007  44.            R0000009   -2.        
    C0000012  OBJROW     -29.          R0000001   -46.       
    C0000012  R0000003  15.            R0000004   -40.       
    C0000012  R0000005   -37.          R0000006  27.         
    C0000012  R0000007   -7.           R0000008   -41.       
    C0000012  R0000009  13.         
    C0000013  OBJROW    9.             R0000000   -22.       
    C0000013  R0000001  21.            R0000002  49.         
    C0000013  R0000003   -30.          R0000004   -3.        
    C0000013  R0000005   -6.           R0000007   -14.       
    C0000013  R0000008   -24.          R0000009  44.         
    C0000014  OBJROW    26.            R0000000  17.         
    C0000014  R0000003  21.            R0000004  46.         
    C0000014  R0000005   -44.          R0000006   -18.       
    C0000014  R0000007   -48.          R0000008  31.         
    C0000014  R0000009   -25.       
    C0000015  OBJROW    33.            R0000000   -34.       
    C0000015  R0000001   -46.          R0000003  31.         
    C0000015  R0000004   -30.          R0000005  33.         
    C0000015  R0000007  7.             R0000008   -4.        
    C0000015  R0000009  20.         
    C0000016  OBJROW     -4.           R0000000   -36.       
    C0000016  R0000001  11.            R0000003  19.         
    C0000016  R0000004  24.            R0000005   -46.       
    C0000016  R0000006   -21.          R0000008   -12.       
    C0000016  R0000009  21.         
    C0000017  OBJROW    44.            R0000000  50.         
    C0000017  R0000001   -43.          R0000003   -41.       
    C0000017  R0000005  4.             R0000007  28.         
    C0000017  R0000008   -27.          R0000009  17.         
    C0000018  OBJROW    4.             R0000000   -11.       
    C0000018  R0000001   -50.          R0000002  19.         
    C0000018  R0000003  38.            R0000004   -16.       
    C0000018  R0000005   -15.          R0000006   -31.       
    C0000018  R0000007  35.            R0000008  16.         
    C0000018  R0000009   -35.       
    C0000019  OBJROW    45.            R0000000  31.         
    C0000019  R0000001   -4.           R0000002  2.          
    C0000019  R0000003  28.            R0000004   -37.       
    C0000019  R0000005  7.             R0000007   -50.       
    C0000019  R0000008   -33.          R0000009   -22.       
    C0000020  OBJROW     -9.           R0000000   -35.       
    C0000020  R0000001   -46.          R0000003  6.          
    C0000020  R0000004  23.            R0000005   -37.       
    C0000020  R0000007   -22.          R0000009   -36.       
    C0000021  OBJROW    34.            R0000000   -37.       
    C0000021  R0000002   -32.          R0000003   -17.       
    C0000021  R0000004  43.            R0000005  38.         
    C0000021  R0000006   -8.           R0000007  40.         
    C0000021  R0000008  13.            R0000009   -40.       
    C0000022  OBJROW     -31.          R0000000  22.         
    C0000022  R0000001   -26.          R0000003  42.         
    C0000022  R0000004  21.            R0000005   -33.       
    C0000022  R0000006  33.            R0000007  25.         
    C0000022  R0000008   -42.       
    C0000023  OBJROW    43.            R0000000   -42.       
    C0000023  R0000001   -12.          R0000002   -40.       
    C0000023  R0000003  2.             R0000004   -37.       
    C0000023  R0000005  3.             R0000006  14.         
    C0000024  OBJROW    45.            R0000000   -28.       
    C0000024  R0000001  35.            R0000002  25.         
    C0000024  R0000003   -15.          R0000004   -28.       
    C0000024  R0000005  31.            R0000006   -39.       
    C0000024  R0000007   -4.           R0000009   -46.       
    C0000025  OBJROW     -4.           R0000000   -45.       
    C0000025  R0000003   -14.          R0000005  49.         
    C0000025  R0000006  4.             R0000007  35.         
    C0000025  R0000008   -23.          R0000009   -6.        
    C0000026  OBJROW    5.             R0000000  44.         
    C0000026  R0000001  2.             R0000002   -43.       
    C0000026  R0000003   -21.          R0000004  34.         
    C0000026  R0000005  17.            R0000006  2.          
    C0000026  R0000007  43.            R0000008   -4.        
    C0000026  R0000009   -45.       
    C0000027  OBJROW    29.            R0000000   -10.       
    C0000027  R0000001  49.            R0000003   -2.        
    C0000027  R0000004   -9.           R0000007   -8.        
    C0000027  R0000008   -15.          R0000009   -17.       
    C0000028  OBJROW     -3.           R0000000   -17.       
    C0000028  R0000001   -12.          R0000003  33.         
    C0000028  R0000004  43.            R0000005  32.         
    C0000028  R0000006   -22.          R0000008   -16.       
    C0000028  R0000009   -33.       
    C0000029  OBJROW     -42.          R0000000   -30.       
    C0000029  R0000001   -17.          R0000002   -49.       
    C0000029  R0000003   -2.           R0000004  48.         
    C0000029  R0000005  3.             R0000008   -35.       
    C0000029  R0000009   -5.        
RHS
    RHS       R0000000   -613.         R0000001   -119.      
    RHS       R0000002   -331.         R0000003  459.        
    RHS       R0000004  350.           R0000005  69.         
    RHS       R0000006   -52.          R0000007  133.        
    RHS       R0000008   -143.         R0000009   -186.      
BOUNDS
 UI BOUND     C0000000  500.        
 UI BOUND     C0000001  500.        
 UI BOUND     C0000002  500.        
 UI BOUND     C0000003  500.        
 UI BOUND     C0000004  500.        
 UI BOUND     C0000005  500.        
 UI BOUND     C0000006  500.        
 UI BOUND     C0000007  500.        
 UI BOUND     C0000008  500.        
 UI BOUND     C0000009  500.        
 UI BOUND     C0000010  500.        
 UI BOUND     C0000011  500.        
 UI BOUND     C0000012  500.        
 UI BOUND     C0000013  500.        
 UI BOUND     C0000014  500.        
 UI BOUND     C0000015  500.        
 UI BOUND     C0000016  500.        
 UI BOUND     C0000017  500.        
 UI BOUND     C0000018  500.        
 UI BOUND     C0000019  500.        
 UI BOUND     C0000020  500.        
 UI BOUND     C0000021  500.        
 UI BOUND     C0000022  500.        
 UI BOUND     C0000023  500.        
 UI BOUND     C0000024  500.        
 UI BOUND     C0000025  500.        
 UI BOUND     C0000026  500.        
 UI BOUND     C0000027  500.        
 UI BOUND     C0000028  500.        
 UI BOUND     C0000029  500.        
ENDATA
