NAME          BLANK   
ROWS
 N  OBJROW
 L  R0000000
 L  R0000001
 L  R0000002
 L  R0000003
 L  R0000004
COLUMNS
    C0000000  OBJROW    39.            R0000000   -44.       
    C0000000  R0000001   -4.           R0000002  23.         
    C0000000  R0000004   -12.       
    C0000001  OBJROW    13.            R0000000   -14.       
    C0000001  R0000002  13.            R0000004  33.         
    C0000002  OBJROW    5.             R0000000  2.          
    C0000002  R0000001  34.            R0000002  42.         
    C0000002  R0000003  13.            R0000004  13.         
    C0000003  OBJROW    13.            R0000000  32.         
    C0000003  R0000001  43.            R0000002  18.         
    C0000003  R0000003  16.            R0000004  40.         
    C0000004  OBJROW     -36.          R0000000  32.         
    C0000004  R0000004   -4.        
    C0000005  OBJROW    12.            R0000000  27.         
    C0000005  R0000002  20.            R0000003  40.         
    C0000005  R0000004   -10.       
    C0000006  OBJROW     -26.          R0000000   -4.        
    C0000006  R0000002   -22.          R0000003   -6.        
    C0000006  R0000004  31.         
    C0000007  OBJROW     -4.           R0000000   -7.        
    C0000007  R0000002  25.            R0000003   -50.       
    C0000008  OBJROW    12.            R0000000  23.         
    C0000008  R0000001   -11.          R0000002  14.         
    C0000008  R0000004  28.         
    C0000009  OBJROW     -46.          R0000000   -49.       
    C0000009  R0000004   -6.        
RHS
    RHS       R0000000  353.           R0000001  185.        
    RHS       R0000002  389.           R0000003   -46.       
    RHS       R0000004  319.        
BOUNDS
 UI BOUND     C0000000  500.        
 UI BOUND     C0000001  500.        
 UI BOUND     C0000002  500.        
 UI BOUND     C0000003  500.        
 UI BOUND     C0000004  500.        
 UI BOUND     C0000005  500.        
 UI BOUND     C0000006  500.        
 UI BOUND     C0000007  500.        
 UI BOUND     C0000008  500.        
 UI BOUND     C0000009  500.        
ENDATA
