NAME          BLANK   
ROWS
 N  OBJROW
 L  R0000000
 L  R0000001
 L  R0000002
 L  R0000003
 L  R0000004
 L  R0000005
 L  R0000006
 L  R0000007
 L  R0000008
 L  R0000009
COLUMNS
    C0000000  OBJROW    40.            R0000001  25.         
    C0000000  R0000002  24.            R0000004   -9.        
    C0000000  R0000005  11.            R0000007   -8.        
    C0000000  R0000009   -31.       
    C0000001  OBJROW     -12.          R0000002   -15.       
    C0000001  R0000003   -15.          R0000005  2.          
    C0000001  R0000006  7.             R0000007  30.         
    C0000001  R0000008  38.            R0000009   -27.       
    C0000002  OBJROW     -10.          R0000000  37.         
    C0000002  R0000001  48.            R0000002  19.         
    C0000002  R0000003   -39.          R0000004  42.         
    C0000002  R0000005  9.             R0000007   -38.       
    C0000002  R0000009  32.         
    C0000003  OBJROW    20.            R0000001   -15.       
    C0000003  R0000002  43.            R0000003  4.          
    C0000003  R0000007  13.            R0000008  39.         
    C0000003  R0000009  29.         
    C0000004  OBJROW     -41.          R0000000  43.         
    C0000004  R0000001   -6.           R0000007  18.         
    C0000004  R0000009  7.          
    C0000005  OBJROW     -26.          R0000000   -48.       
    C0000005  R0000001   -11.          R0000002   -23.       
    C0000005  R0000003   -12.          R0000004  34.         
    C0000005  R0000005  10.            R0000006   -33.       
    C0000005  R0000007   -18.          R0000009  18.         
    C0000006  OBJROW    7.             R0000000  31.         
    C0000006  R0000001  37.            R0000002   -26.       
    C0000006  R0000007   -31.          R0000008   -23.       
    C0000006  R0000009   -33.       
    C0000007  OBJROW    30.            R0000001   -26.       
    C0000007  R0000002   -11.          R0000003   -44.       
    C0000007  R0000007  12.            R0000008   -28.       
    C0000007  R0000009  2.          
    C0000008  OBJROW    19.            R0000000  2.          
    C0000008  R0000001  15.            R0000002   -45.       
    C0000008  R0000004   -25.          R0000005   -6.        
    C0000008  R0000007   -25.          R0000008  20.         
    C0000008  R0000009  37.         
    C0000009  OBJROW     -28.          R0000000  8.          
    C0000009  R0000001  2.             R0000002  12.         
    C0000009  R0000003   -48.          R0000004  22.         
    C0000009  R0000007  8.             R0000009  26.         
    C0000010  OBJROW     -37.          R0000000   -11.       
    C0000010  R0000001  42.            R0000002   -39.       
    C0000010  R0000004   -39.          R0000005   -45.       
    C0000010  R0000008   -50.          R0000009   -34.       
    C0000011  OBJROW    3.             R0000000  34.         
    C0000011  R0000002   -5.           R0000003  14.         
    C0000011  R0000005  27.            R0000006  49.         
    C0000011  R0000007  11.            R0000008  7.          
    C0000011  R0000009  3.          
    C0000012  OBJROW    10.            R0000002   -8.        
    C0000012  R0000004   -23.          R0000006   -9.        
    C0000012  R0000007   -25.          R0000009   -17.       
    C0000013  OBJROW     -2.           R0000001  38.         
    C0000013  R0000002  16.            R0000003  31.         
    C0000013  R0000004  29.            R0000005   -11.       
    C0000013  R0000007   -8.           R0000008   -14.       
    C0000014  OBJROW     -43.          R0000000   -34.       
    C0000014  R0000001   -38.          R0000002   -10.       
    C0000014  R0000003   -2.           R0000004   -33.       
    C0000014  R0000005   -20.          R0000006  13.         
    C0000014  R0000009  39.         
    C0000015  OBJROW     -3.           R0000000  39.         
    C0000015  R0000002  36.            R0000003   -45.       
    C0000015  R0000004  34.            R0000005  4.          
    C0000015  R0000006   -18.          R0000007   -50.       
    C0000016  OBJROW    29.            R0000000   -35.       
    C0000016  R0000001   -50.          R0000002   -31.       
    C0000016  R0000003   -26.          R0000004   -3.        
    C0000016  R0000007  3.             R0000009  22.         
    C0000017  OBJROW    5.             R0000000  31.         
    C0000017  R0000001   -8.           R0000002  22.         
    C0000017  R0000003  8.             R0000004  42.         
    C0000017  R0000005  11.            R0000006  44.         
    C0000017  R0000007   -11.          R0000009   -17.       
    C0000018  OBJROW     -31.          R0000002   -22.       
    C0000018  R0000003   -23.          R0000004  7.          
    C0000018  R0000005  1.             R0000006  36.         
    C0000018  R0000007  27.            R0000008  48.         
    C0000018  R0000009  36.         
    C0000019  OBJROW     -27.          R0000000   -4.        
    C0000019  R0000001   -42.          R0000002  31.         
    C0000019  R0000003   -37.          R0000005   -26.       
    C0000019  R0000006  27.            R0000007  18.         
    C0000019  R0000009  18.         
    C0000020  OBJROW    10.            R0000001   -38.       
    C0000020  R0000002   -49.          R0000003   -30.       
    C0000020  R0000004  7.             R0000006  18.         
    C0000020  R0000007   -19.          R0000009   -24.       
    C0000021  OBJROW     -44.          R0000003   -32.       
    C0000021  R0000004  7.             R0000005   -45.       
    C0000021  R0000007   -15.          R0000008  42.         
    C0000021  R0000009   -7.        
    C0000022  OBJROW    4.             R0000000   -50.       
    C0000022  R0000002  22.            R0000003   -35.       
    C0000022  R0000005  43.            R0000006  20.         
    C0000022  R0000007  50.            R0000008  20.         
    C0000022  R0000009   -12.       
    C0000023  OBJROW     -1.           R0000001   -6.        
    C0000023  R0000002  33.            R0000005   -15.       
    C0000023  R0000006  49.            R0000007   -27.       
    C0000023  R0000008  2.             R0000009   -13.       
    C0000024  OBJROW    10.            R0000000  26.         
    C0000024  R0000001  38.            R0000002  49.         
    C0000024  R0000003  19.            R0000004   -5.        
    C0000024  R0000005  22.            R0000007   -37.       
    C0000024  R0000008  17.            R0000009  18.         
    C0000025  OBJROW     -17.          R0000001   -23.       
    C0000025  R0000002   -6.           R0000006  47.         
    C0000025  R0000007  23.            R0000008   -47.       
    C0000025  R0000009  41.         
    C0000026  OBJROW    5.             R0000001   -10.       
    C0000026  R0000002   -32.          R0000006   -2.        
    C0000026  R0000007  35.            R0000008   -33.       
    C0000026  R0000009  1.          
    C0000027  OBJROW     -19.          R0000001  44.         
    C0000027  R0000002   -39.          R0000003  22.         
    C0000027  R0000004  34.            R0000006  45.         
    C0000027  R0000007  43.            R0000008  13.         
    C0000027  R0000009  19.         
    C0000028  OBJROW     -3.           R0000000   -25.       
    C0000028  R0000001  29.            R0000002  48.         
    C0000028  R0000004  23.            R0000005   -27.       
    C0000028  R0000006   -12.          R0000007  2.          
    C0000028  R0000009  7.          
    C0000029  OBJROW    27.            R0000000  6.          
    C0000029  R0000001   -3.           R0000002   -18.       
    C0000029  R0000004   -27.          R0000005   -16.       
    C0000029  R0000007  12.            R0000009   -23.       
RHS
    RHS       R0000000  100.           R0000001  15.         
    RHS       R0000002  145.           R0000003   -90.       
    RHS       R0000004  103.           R0000005   -62.       
    RHS       R0000006  685.           R0000007   -135.      
    RHS       R0000008   -252.         R0000009  105.        
BOUNDS
 UI BOUND     C0000000  500.        
 UI BOUND     C0000001  500.        
 UI BOUND     C0000002  500.        
 UI BOUND     C0000003  500.        
 UI BOUND     C0000004  500.        
 UI BOUND     C0000005  500.        
 UI BOUND     C0000006  500.        
 UI BOUND     C0000007  500.        
 UI BOUND     C0000008  500.        
 UI BOUND     C0000009  500.        
 UI BOUND     C0000010  500.        
 UI BOUND     C0000011  500.        
 UI BOUND     C0000012  500.        
 UI BOUND     C0000013  500.        
 UI BOUND     C0000014  500.        
 UI BOUND     C0000015  500.        
 UI BOUND     C0000016  500.        
 UI BOUND     C0000017  500.        
 UI BOUND     C0000018  500.        
 UI BOUND     C0000019  500.        
 UI BOUND     C0000020  500.        
 UI BOUND     C0000021  500.        
 UI BOUND     C0000022  500.        
 UI BOUND     C0000023  500.        
 UI BOUND     C0000024  500.        
 UI BOUND     C0000025  500.        
 UI BOUND     C0000026  500.        
 UI BOUND     C0000027  500.        
 UI BOUND     C0000028  500.        
 UI BOUND     C0000029  500.        
ENDATA
