NAME          BLANK   
ROWS
 N  OBJROW
 L  R0000000
 L  R0000001
 L  R0000002
 L  R0000003
 L  R0000004
 L  R0000005
 L  R0000006
 L  R0000007
 L  R0000008
 L  R0000009
COLUMNS
    C0000000  OBJROW     -24.          R0000000  26.         
    C0000000  R0000003  23.            R0000004  29.         
    C0000000  R0000005   -15.          R0000006  39.         
    C0000000  R0000008   -29.          R0000009   -6.        
    C0000001  OBJROW    42.            R0000001  5.          
    C0000001  R0000002  27.            R0000003  15.         
    C0000001  R0000004   -43.          R0000006  33.         
    C0000001  R0000008   -33.          R0000009   -27.       
    C0000002  OBJROW    45.            R0000001  19.         
    C0000002  R0000003  29.            R0000004   -35.       
    C0000002  R0000005   -32.          R0000006   -10.       
    C0000002  R0000007  29.            R0000008  45.         
    C0000002  R0000009  47.         
    C0000003  OBJROW     -22.          R0000001  20.         
    C0000003  R0000003   -41.          R0000004  20.         
    C0000003  R0000006  42.            R0000007   -39.       
    C0000003  R0000008  20.            R0000009   -44.       
    C0000004  OBJROW     -1.           R0000000  43.         
    C0000004  R0000001  23.            R0000003   -23.       
    C0000004  R0000004   -44.          R0000006  3.          
    C0000004  R0000007   -44.          R0000008   -11.       
    C0000005  OBJROW    45.            R0000001  32.         
    C0000005  R0000002   -40.          R0000003  36.         
    C0000005  R0000004   -39.          R0000006  38.         
    C0000005  R0000008  10.            R0000009   -15.       
    C0000006  OBJROW     -35.          R0000001  17.         
    C0000006  R0000003  31.            R0000004   -49.       
    C0000006  R0000008   -28.          R0000009  20.         
    C0000007  OBJROW    11.            R0000001   -10.       
    C0000007  R0000003  31.            R0000004  39.         
    C0000007  R0000006   -41.          R0000007   -24.       
    C0000007  R0000008  20.            R0000009  45.         
    C0000008  OBJROW     -11.          R0000001  38.         
    C0000008  R0000003   -20.          R0000004  34.         
    C0000008  R0000005  7.             R0000006   -8.        
    C0000008  R0000007   -37.          R0000008  2.          
    C0000008  R0000009  38.         
    C0000009  OBJROW    49.            R0000001  20.         
    C0000009  R0000002   -4.           R0000003  38.         
    C0000009  R0000005   -25.          R0000006   -10.       
    C0000009  R0000007  23.            R0000008   -4.        
    C0000009  R0000009  2.          
    C0000010  OBJROW     -16.          R0000001  10.         
    C0000010  R0000002  2.             R0000003  50.         
    C0000010  R0000004  35.            R0000005   -25.       
    C0000010  R0000006  27.            R0000008  5.          
    C0000010  R0000009  36.         
    C0000011  OBJROW     -14.          R0000000   -41.       
    C0000011  R0000001  1.             R0000003   -17.       
    C0000011  R0000004   -31.          R0000007  14.         
    C0000011  R0000008   -38.          R0000009  19.         
    C0000012  OBJROW    39.            R0000001  17.         
    C0000012  R0000002   -4.           R0000003   -42.       
    C0000012  R0000004   -17.          R0000006  22.         
    C0000012  R0000007   -37.          R0000009   -38.       
    C0000013  OBJROW     -24.          R0000001  28.         
    C0000013  R0000003   -24.          R0000004  2.          
    C0000013  R0000006  44.            R0000007   -30.       
    C0000013  R0000008  14.            R0000009  19.         
    C0000014  OBJROW    21.            R0000000  11.         
    C0000014  R0000001   -25.          R0000003   -24.       
    C0000014  R0000005  6.             R0000006   -2.        
    C0000014  R0000007   -39.          R0000008  34.         
    C0000015  OBJROW    47.            R0000001  42.         
    C0000015  R0000002  39.            R0000003   -8.        
    C0000015  R0000004   -11.          R0000006   -42.       
    C0000015  R0000008  24.         
    C0000016  OBJROW     -2.           R0000001   -33.       
    C0000016  R0000003  23.            R0000004   -46.       
    C0000016  R0000005   -7.           R0000006  45.         
    C0000016  R0000009   -8.        
    C0000017  OBJROW     -48.          R0000001   -2.        
    C0000017  R0000003  41.            R0000004  8.          
    C0000017  R0000005  30.            R0000006  45.         
    C0000017  R0000007  9.             R0000008   -21.       
    C0000017  R0000009   -9.        
    C0000018  OBJROW     -44.          R0000001  29.         
    C0000018  R0000003   -38.          R0000004  32.         
    C0000018  R0000005  47.            R0000006   -20.       
    C0000018  R0000007  19.            R0000008   -11.       
    C0000018  R0000009   -22.       
    C0000019  OBJROW     -49.          R0000000   -27.       
    C0000019  R0000001  49.            R0000002  23.         
    C0000019  R0000003   -35.          R0000004  36.         
    C0000019  R0000006  27.            R0000007   -16.       
    C0000019  R0000008   -38.       
    C0000020  OBJROW    48.            R0000002  8.          
    C0000020  R0000003   -39.          R0000004   -8.        
    C0000020  R0000006   -23.          R0000008   -5.        
    C0000020  R0000009   -15.       
    C0000021  OBJROW     -47.          R0000000   -13.       
    C0000021  R0000001   -44.          R0000002   -28.       
    C0000021  R0000003   -34.          R0000004  5.          
    C0000021  R0000005  46.            R0000006   -29.       
    C0000021  R0000007  38.            R0000008  27.         
    C0000022  OBJROW    10.            R0000000  41.         
    C0000022  R0000001  3.             R0000002   -30.       
    C0000022  R0000004  36.            R0000005  20.         
    C0000022  R0000006  40.            R0000008   -35.       
    C0000023  OBJROW    20.            R0000000  47.         
    C0000023  R0000001   -8.           R0000004   -24.       
    C0000023  R0000006   -1.           R0000008  44.         
    C0000023  R0000009  5.          
    C0000024  OBJROW     -22.          R0000000  4.          
    C0000024  R0000002  25.            R0000003  19.         
    C0000024  R0000004   -48.          R0000006  1.          
    C0000024  R0000008  31.         
    C0000025  OBJROW     -13.          R0000000   -22.       
    C0000025  R0000001  46.            R0000002   -44.       
    C0000025  R0000003   -1.           R0000004   -33.       
    C0000025  R0000006   -29.          R0000007  24.         
    C0000025  R0000008  9.             R0000009   -1.        
    C0000026  OBJROW    19.            R0000001   -21.       
    C0000026  R0000002  8.             R0000003   -42.       
    C0000026  R0000004  25.            R0000006   -12.       
    C0000026  R0000008  26.            R0000009  7.          
    C0000027  OBJROW     -12.          R0000000   -35.       
    C0000027  R0000001  14.            R0000003   -25.       
    C0000027  R0000004  38.            R0000005   -44.       
    C0000027  R0000006  33.            R0000008   -9.        
    C0000028  OBJROW    20.            R0000000  13.         
    C0000028  R0000001   -17.          R0000003   -44.       
    C0000028  R0000004   -14.          R0000005   -37.       
    C0000028  R0000006  17.            R0000007   -5.        
    C0000028  R0000008  35.            R0000009   -37.       
    C0000029  OBJROW    7.             R0000001   -26.       
    C0000029  R0000003  47.            R0000004   -17.       
    C0000029  R0000005  49.            R0000006   -16.       
    C0000029  R0000007  31.            R0000008   -5.        
RHS
    RHS       R0000000  330.           R0000001  345.        
    RHS       R0000002   -305.         R0000003  100.        
    RHS       R0000004   -829.         R0000005  68.         
    RHS       R0000006  439.           R0000007   -66.       
    RHS       R0000008  310.           R0000009  173.        
BOUNDS
 UI BOUND     C0000000  500.        
 UI BOUND     C0000001  500.        
 UI BOUND     C0000002  500.        
 UI BOUND     C0000003  500.        
 UI BOUND     C0000004  500.        
 UI BOUND     C0000005  500.        
 UI BOUND     C0000006  500.        
 UI BOUND     C0000007  500.        
 UI BOUND     C0000008  500.        
 UI BOUND     C0000009  500.        
 UI BOUND     C0000010  500.        
 UI BOUND     C0000011  500.        
 UI BOUND     C0000012  500.        
 UI BOUND     C0000013  500.        
 UI BOUND     C0000014  500.        
 UI BOUND     C0000015  500.        
 UI BOUND     C0000016  500.        
 UI BOUND     C0000017  500.        
 UI BOUND     C0000018  500.        
 UI BOUND     C0000019  500.        
 UI BOUND     C0000020  500.        
 UI BOUND     C0000021  500.        
 UI BOUND     C0000022  500.        
 UI BOUND     C0000023  500.        
 UI BOUND     C0000024  500.        
 UI BOUND     C0000025  500.        
 UI BOUND     C0000026  500.        
 UI BOUND     C0000027  500.        
 UI BOUND     C0000028  500.        
 UI BOUND     C0000029  500.        
ENDATA
