NAME          BLANK   
ROWS
 N  OBJROW
 L  R0000000
 L  R0000001
 L  R0000002
 L  R0000003
 L  R0000004
 L  R0000005
 L  R0000006
 L  R0000007
 L  R0000008
 L  R0000009
 L  R0000010
 L  R0000011
 L  R0000012
 L  R0000013
 L  R0000014
COLUMNS
    C0000000  OBJROW    30.            R0000000  32.         
    C0000000  R0000004  30.            R0000005   -9.        
    C0000000  R0000006  37.            R0000007   -9.        
    C0000000  R0000008  45.            R0000010  47.         
    C0000000  R0000011   -22.          R0000012   -31.       
    C0000000  R0000013   -31.          R0000014  21.         
    C0000001  OBJROW     -35.          R0000001  36.         
    C0000001  R0000003   -41.          R0000004  33.         
    C0000001  R0000005  30.            R0000006  8.          
    C0000001  R0000008  35.            R0000010   -26.       
    C0000001  R0000011  49.            R0000013  15.         
    C0000002  OBJROW    1.             R0000000  33.         
    C0000002  R0000001   -30.          R0000002  3.          
    C0000002  R0000005  28.            R0000006  25.         
    C0000002  R0000007  16.            R0000008  17.         
    C0000002  R0000010  26.            R0000011  49.         
    C0000002  R0000012   -19.          R0000013  5.          
    C0000002  R0000014   -37.       
    C0000003  OBJROW    21.            R0000001   -33.       
    C0000003  R0000003   -32.          R0000004   -20.       
    C0000003  R0000005   -31.          R0000006  37.         
    C0000003  R0000007   -24.          R0000008   -12.       
    C0000003  R0000010  19.            R0000011   -33.       
    C0000003  R0000014   -7.        
    C0000004  OBJROW     -25.          R0000001  37.         
    C0000004  R0000002   -16.          R0000003  48.         
    C0000004  R0000004   -1.           R0000005   -50.       
    C0000004  R0000006  43.            R0000007  21.         
    C0000004  R0000009  20.            R0000010  34.         
    C0000004  R0000012  10.            R0000013   -14.       
    C0000005  OBJROW    18.            R0000000  26.         
    C0000005  R0000001  14.            R0000003   -10.       
    C0000005  R0000004   -14.          R0000005   -12.       
    C0000005  R0000006  1.             R0000009  32.         
    C0000005  R0000010   -42.          R0000011  11.         
    C0000005  R0000013  29.            R0000014   -49.       
    C0000006  OBJROW    3.             R0000001  46.         
    C0000006  R0000002   -44.          R0000005   -6.        
    C0000006  R0000007  15.            R0000008  37.         
    C0000006  R0000011   -16.          R0000012  21.         
    C0000006  R0000014   -45.       
    C0000007  OBJROW    29.            R0000001   -31.       
    C0000007  R0000002   -3.           R0000003   -20.       
    C0000007  R0000005   -34.          R0000006   -14.       
    C0000007  R0000008  1.             R0000009  48.         
    C0000007  R0000010   -24.          R0000011   -36.       
    C0000007  R0000013   -11.          R0000014   -48.       
    C0000008  OBJROW    46.            R0000001   -37.       
    C0000008  R0000002  31.            R0000003   -30.       
    C0000008  R0000004   -3.           R0000005  39.         
    C0000008  R0000006   -18.          R0000007  20.         
    C0000008  R0000008   -49.          R0000009   -24.       
    C0000008  R0000010  34.            R0000011   -33.       
    C0000008  R0000012   -26.          R0000013  42.         
    C0000009  OBJROW    16.            R0000000   -38.       
    C0000009  R0000003  3.             R0000005  3.          
    C0000009  R0000006   -25.          R0000007  5.          
    C0000009  R0000008  24.            R0000010  35.         
    C0000009  R0000011   -9.           R0000012  14.         
    C0000009  R0000013   -18.       
    C0000010  OBJROW    32.            R0000001   -46.       
    C0000010  R0000002   -21.          R0000003  29.         
    C0000010  R0000005   -4.           R0000006   -33.       
    C0000010  R0000008   -43.          R0000012  13.         
    C0000010  R0000013  47.            R0000014   -1.        
    C0000011  OBJROW     -3.           R0000001  29.         
    C0000011  R0000002   -36.          R0000005   -9.        
    C0000011  R0000006  4.             R0000008  44.         
    C0000011  R0000009  27.            R0000011  18.         
    C0000011  R0000012  7.             R0000014  30.         
    C0000012  OBJROW    26.            R0000000  25.         
    C0000012  R0000001  49.            R0000002   -17.       
    C0000012  R0000003   -27.          R0000004  32.         
    C0000012  R0000005   -41.          R0000006   -33.       
    C0000012  R0000008   -28.          R0000009  33.         
    C0000012  R0000010   -12.          R0000013   -18.       
    C0000012  R0000014   -8.        
    C0000013  OBJROW     -10.          R0000000  1.          
    C0000013  R0000001   -6.           R0000003  2.          
    C0000013  R0000004  47.            R0000005   -6.        
    C0000013  R0000007  19.            R0000008   -4.        
    C0000013  R0000009  26.            R0000010   -40.       
    C0000013  R0000011  30.            R0000012  49.         
    C0000013  R0000013   -36.          R0000014   -18.       
    C0000014  OBJROW     -32.          R0000000   -30.       
    C0000014  R0000001   -45.          R0000002   -22.       
    C0000014  R0000003  6.             R0000004   -27.       
    C0000014  R0000005   -8.           R0000006   -42.       
    C0000014  R0000008   -1.           R0000009  37.         
    C0000014  R0000010   -45.          R0000012  21.         
    C0000014  R0000013   -28.          R0000014   -42.       
    C0000015  OBJROW    17.            R0000000   -9.        
    C0000015  R0000003  12.            R0000004  16.         
    C0000015  R0000005   -34.          R0000006   -7.        
    C0000015  R0000007   -20.          R0000008  18.         
    C0000015  R0000009  14.            R0000010  11.         
    C0000015  R0000012   -40.       
    C0000016  OBJROW    19.            R0000002   -46.       
    C0000016  R0000004   -15.          R0000008  21.         
    C0000016  R0000010  29.            R0000011  24.         
    C0000016  R0000012  45.            R0000013  29.         
    C0000016  R0000014  25.         
    C0000017  OBJROW    36.            R0000001  24.         
    C0000017  R0000002  11.            R0000003  46.         
    C0000017  R0000005   -29.          R0000006  38.         
    C0000017  R0000007   -35.          R0000008  9.          
    C0000017  R0000011  9.             R0000012   -50.       
    C0000017  R0000013  41.            R0000014  25.         
    C0000018  OBJROW    6.             R0000000   -30.       
    C0000018  R0000001   -37.          R0000002   -18.       
    C0000018  R0000003  15.            R0000004  6.          
    C0000018  R0000005  35.            R0000006  31.         
    C0000018  R0000007  48.            R0000008   -14.       
    C0000018  R0000010  19.            R0000012   -9.        
    C0000018  R0000013   -6.           R0000014  3.          
    C0000019  OBJROW     -39.          R0000000  32.         
    C0000019  R0000001   -33.          R0000003   -25.       
    C0000019  R0000005  24.            R0000006   -43.       
    C0000019  R0000008  37.            R0000011  37.         
    C0000019  R0000013   -40.          R0000014   -39.       
RHS
    RHS       R0000000   -39.          R0000001  44.         
    RHS       R0000002   -273.         R0000003   -27.       
    RHS       R0000004   -177.         R0000005   -547.      
    RHS       R0000006   -33.          R0000007   -151.      
    RHS       R0000008  230.           R0000009  524.        
    RHS       R0000010   -59.          R0000011  138.        
    RHS       R0000012  105.           R0000013   -63.       
    RHS       R0000014   -481.      
BOUNDS
 UI BOUND     C0000000  500.        
 UI BOUND     C0000001  500.        
 UI BOUND     C0000002  500.        
 UI BOUND     C0000003  500.        
 UI BOUND     C0000004  500.        
 UI BOUND     C0000005  500.        
 UI BOUND     C0000006  500.        
 UI BOUND     C0000007  500.        
 UI BOUND     C0000008  500.        
 UI BOUND     C0000009  500.        
 UI BOUND     C0000010  500.        
 UI BOUND     C0000011  500.        
 UI BOUND     C0000012  500.        
 UI BOUND     C0000013  500.        
 UI BOUND     C0000014  500.        
 UI BOUND     C0000015  500.        
 UI BOUND     C0000016  500.        
 UI BOUND     C0000017  500.        
 UI BOUND     C0000018  500.        
 UI BOUND     C0000019  500.        
ENDATA
