NAME          BLANK   
ROWS
 N  OBJROW
 L  R0000000
 L  R0000001
 L  R0000002
 L  R0000003
 L  R0000004
 L  R0000005
 L  R0000006
 L  R0000007
 L  R0000008
 L  R0000009
COLUMNS
    C0000000  OBJROW    5.             R0000000   -25.       
    C0000000  R0000001  49.            R0000002   -11.       
    C0000000  R0000003  10.            R0000004  22.         
    C0000000  R0000005  42.            R0000006   -40.       
    C0000000  R0000007   -37.          R0000008  24.         
    C0000000  R0000009   -30.       
    C0000001  OBJROW    47.            R0000001   -26.       
    C0000001  R0000002   -25.          R0000003  34.         
    C0000001  R0000004   -17.          R0000005  32.         
    C0000001  R0000009   -36.       
    C0000002  OBJROW    43.            R0000000   -1.        
    C0000002  R0000002  11.            R0000003   -21.       
    C0000002  R0000004  41.            R0000005  2.          
    C0000002  R0000008  16.            R0000009   -3.        
    C0000003  OBJROW     -31.          R0000000  20.         
    C0000003  R0000002  36.            R0000003   -38.       
    C0000003  R0000004   -12.          R0000005   -42.       
    C0000003  R0000006  41.            R0000007  48.         
    C0000003  R0000008  23.            R0000009  31.         
    C0000004  OBJROW    6.             R0000000   -47.       
    C0000004  R0000001  48.            R0000002   -46.       
    C0000004  R0000003  25.            R0000004   -26.       
    C0000004  R0000005  13.            R0000006   -43.       
    C0000004  R0000008   -6.           R0000009   -30.       
    C0000005  OBJROW     -28.          R0000001   -20.       
    C0000005  R0000004  15.            R0000005   -5.        
    C0000005  R0000007   -19.          R0000008  21.         
    C0000005  R0000009  27.         
    C0000006  OBJROW    17.            R0000001   -41.       
    C0000006  R0000002   -41.          R0000003  11.         
    C0000006  R0000005  29.            R0000006  6.          
    C0000006  R0000007   -37.          R0000008   -27.       
    C0000007  OBJROW    40.            R0000000   -4.        
    C0000007  R0000001   -27.          R0000002   -33.       
    C0000007  R0000004  32.            R0000005  36.         
    C0000007  R0000006   -38.          R0000008   -48.       
    C0000007  R0000009   -46.       
    C0000008  OBJROW     -11.          R0000001  26.         
    C0000008  R0000002  34.            R0000003  36.         
    C0000008  R0000004  35.            R0000005  12.         
    C0000008  R0000007   -50.          R0000009  30.         
    C0000009  OBJROW     -13.          R0000001  32.         
    C0000009  R0000002   -20.          R0000004  7.          
    C0000009  R0000006   -2.           R0000007  19.         
    C0000009  R0000008   -37.          R0000009   -33.       
    C0000010  OBJROW    35.            R0000000   -13.       
    C0000010  R0000002   -46.          R0000003   -13.       
    C0000010  R0000004   -17.          R0000007  7.          
    C0000010  R0000008  39.            R0000009   -18.       
    C0000011  OBJROW    20.            R0000001   -9.        
    C0000011  R0000003  43.            R0000004   -15.       
    C0000011  R0000005   -32.          R0000007  10.         
    C0000011  R0000009   -50.       
    C0000012  OBJROW    29.            R0000000  41.         
    C0000012  R0000002  12.            R0000003  49.         
    C0000012  R0000004  39.            R0000005   -19.       
    C0000012  R0000006   -1.           R0000008  21.         
    C0000012  R0000009   -14.       
    C0000013  OBJROW     -44.          R0000000  31.         
    C0000013  R0000001  37.            R0000003  23.         
    C0000013  R0000004   -14.          R0000005   -45.       
    C0000013  R0000006   -45.          R0000007   -16.       
    C0000013  R0000009   -17.       
    C0000014  OBJROW     -30.          R0000001   -9.        
    C0000014  R0000002   -35.          R0000003  33.         
    C0000014  R0000004   -15.          R0000008   -5.        
    C0000014  R0000009   -21.       
    C0000015  OBJROW     -11.          R0000000  26.         
    C0000015  R0000001   -1.           R0000002  30.         
    C0000015  R0000003   -20.          R0000004   -48.       
    C0000015  R0000006  14.            R0000008   -10.       
    C0000015  R0000009  4.          
    C0000016  OBJROW     -44.          R0000001   -47.       
    C0000016  R0000002   -43.          R0000003   -29.       
    C0000016  R0000004  33.            R0000005   -7.        
    C0000016  R0000007   -18.          R0000008   -20.       
    C0000016  R0000009  24.         
    C0000017  OBJROW    25.            R0000001  20.         
    C0000017  R0000002   -23.          R0000003   -47.       
    C0000017  R0000005   -36.          R0000006   -19.       
    C0000017  R0000008  16.            R0000009   -26.       
    C0000018  OBJROW     -5.           R0000001  36.         
    C0000018  R0000003   -42.          R0000004   -6.        
    C0000018  R0000006  3.             R0000008   -47.       
    C0000019  OBJROW     -18.          R0000000  19.         
    C0000019  R0000001   -11.          R0000002  4.          
    C0000019  R0000004   -35.          R0000005   -11.       
    C0000019  R0000007   -35.          R0000008   -6.        
    C0000019  R0000009   -36.       
RHS
    RHS       R0000000  135.           R0000001  94.         
    RHS       R0000002   -259.         R0000003  313.        
    RHS       R0000004   -56.          R0000005  176.        
    RHS       R0000006   -182.         R0000007   -453.      
    RHS       R0000008   -286.         R0000009   -482.      
BOUNDS
 UI BOUND     C0000000  500.        
 UI BOUND     C0000001  500.        
 UI BOUND     C0000002  500.        
 UI BOUND     C0000003  500.        
 UI BOUND     C0000004  500.        
 UI BOUND     C0000005  500.        
 UI BOUND     C0000006  500.        
 UI BOUND     C0000007  500.        
 UI BOUND     C0000008  500.        
 UI BOUND     C0000009  500.        
 UI BOUND     C0000010  500.        
 UI BOUND     C0000011  500.        
 UI BOUND     C0000012  500.        
 UI BOUND     C0000013  500.        
 UI BOUND     C0000014  500.        
 UI BOUND     C0000015  500.        
 UI BOUND     C0000016  500.        
 UI BOUND     C0000017  500.        
 UI BOUND     C0000018  500.        
 UI BOUND     C0000019  500.        
ENDATA
